p cnf 944 8374
-1 55 0
-55 1 0
-55 56 0
-2 56 0
-56 55 2 0
-2 -55 57 0
-57 2 0
-57 55 0
-56 58 0
-3 58 0
-58 56 3 0
-57 59 0
-3 -56 59 0
-59 57 3 0
-59 57 56 0
-3 -57 60 0
-60 3 0
-60 57 0
-58 61 0
-4 61 0
-61 58 4 0
-59 62 0
-4 -58 62 0
-62 59 4 0
-62 59 58 0
-60 63 0
-4 -59 63 0
-63 60 4 0
-63 60 59 0
-4 -60 64 0
-64 4 0
-64 60 0
-61 65 0
-5 65 0
-65 61 5 0
-62 66 0
-5 -61 66 0
-66 62 5 0
-66 62 61 0
-63 67 0
-5 -62 67 0
-67 63 5 0
-67 63 62 0
-64 68 0
-5 -63 68 0
-68 64 5 0
-68 64 63 0
-5 -64 69 0
-69 5 0
-69 64 0
-65 70 0
-6 70 0
-70 65 6 0
-66 71 0
-6 -65 71 0
-71 66 6 0
-71 66 65 0
-67 72 0
-6 -66 72 0
-72 67 6 0
-72 67 66 0
-68 73 0
-6 -67 73 0
-73 68 6 0
-73 68 67 0
-69 74 0
-6 -68 74 0
-74 69 6 0
-74 69 68 0
-6 -69 75 0
-75 6 0
-75 69 0
-70 76 0
-7 76 0
-76 70 7 0
-71 77 0
-7 -70 77 0
-77 71 7 0
-77 71 70 0
-72 78 0
-7 -71 78 0
-78 72 7 0
-78 72 71 0
-73 79 0
-7 -72 79 0
-79 73 7 0
-79 73 72 0
-74 80 0
-7 -73 80 0
-80 74 7 0
-80 74 73 0
-75 81 0
-7 -74 81 0
-81 75 7 0
-81 75 74 0
-7 -75 82 0
-82 7 0
-82 75 0
-76 83 0
-8 83 0
-83 76 8 0
-77 84 0
-8 -76 84 0
-84 77 8 0
-84 77 76 0
-78 85 0
-8 -77 85 0
-85 78 8 0
-85 78 77 0
-79 86 0
-8 -78 86 0
-86 79 8 0
-86 79 78 0
-80 87 0
-8 -79 87 0
-87 80 8 0
-87 80 79 0
-81 88 0
-8 -80 88 0
-88 81 8 0
-88 81 80 0
-82 89 0
-8 -81 89 0
-89 82 8 0
-89 82 81 0
-8 -82 90 0
-90 8 0
-90 82 0
-83 91 0
-9 91 0
-91 83 9 0
-84 92 0
-9 -83 92 0
-92 84 9 0
-92 84 83 0
-85 93 0
-9 -84 93 0
-93 85 9 0
-93 85 84 0
-86 94 0
-9 -85 94 0
-94 86 9 0
-94 86 85 0
-87 95 0
-9 -86 95 0
-95 87 9 0
-95 87 86 0
-88 96 0
-9 -87 96 0
-96 88 9 0
-96 88 87 0
-89 97 0
-9 -88 97 0
-97 89 9 0
-97 89 88 0
-90 98 0
-9 -89 98 0
-98 90 9 0
-98 90 89 0
-9 -90 99 0
-99 9 0
-99 90 0
-91 100 0
-10 100 0
-100 91 10 0
-92 101 0
-10 -91 101 0
-101 92 10 0
-101 92 91 0
-93 102 0
-10 -92 102 0
-102 93 10 0
-102 93 92 0
-94 103 0
-10 -93 103 0
-103 94 10 0
-103 94 93 0
-95 104 0
-10 -94 104 0
-104 95 10 0
-104 95 94 0
-96 105 0
-10 -95 105 0
-105 96 10 0
-105 96 95 0
-97 106 0
-10 -96 106 0
-106 97 10 0
-106 97 96 0
-98 107 0
-10 -97 107 0
-107 98 10 0
-107 98 97 0
-99 108 0
-10 -98 108 0
-108 99 10 0
-108 99 98 0
-10 -99 109 0
-109 10 0
-109 99 0
-100 110 0
-11 110 0
-110 100 11 0
-101 111 0
-11 -100 111 0
-111 101 11 0
-111 101 100 0
-102 112 0
-11 -101 112 0
-112 102 11 0
-112 102 101 0
-103 113 0
-11 -102 113 0
-113 103 11 0
-113 103 102 0
-104 114 0
-11 -103 114 0
-114 104 11 0
-114 104 103 0
-105 115 0
-11 -104 115 0
-115 105 11 0
-115 105 104 0
-106 116 0
-11 -105 116 0
-116 106 11 0
-116 106 105 0
-107 117 0
-11 -106 117 0
-117 107 11 0
-117 107 106 0
-108 118 0
-11 -107 118 0
-118 108 11 0
-118 108 107 0
-109 119 0
-11 -108 119 0
-119 109 11 0
-119 109 108 0
-11 -109 120 0
-120 11 0
-120 109 0
-110 121 0
-12 121 0
-121 110 12 0
-111 122 0
-12 -110 122 0
-122 111 12 0
-122 111 110 0
-112 123 0
-12 -111 123 0
-123 112 12 0
-123 112 111 0
-113 124 0
-12 -112 124 0
-124 113 12 0
-124 113 112 0
-114 125 0
-12 -113 125 0
-125 114 12 0
-125 114 113 0
-115 126 0
-12 -114 126 0
-126 115 12 0
-126 115 114 0
-116 127 0
-12 -115 127 0
-127 116 12 0
-127 116 115 0
-117 128 0
-12 -116 128 0
-128 117 12 0
-128 117 116 0
-118 129 0
-12 -117 129 0
-129 118 12 0
-129 118 117 0
-119 130 0
-12 -118 130 0
-130 119 12 0
-130 119 118 0
-120 131 0
-12 -119 131 0
-131 120 12 0
-131 120 119 0
-12 -120 132 0
-132 12 0
-132 120 0
-121 133 0
-13 133 0
-133 121 13 0
-122 134 0
-13 -121 134 0
-134 122 13 0
-134 122 121 0
-123 135 0
-13 -122 135 0
-135 123 13 0
-135 123 122 0
-124 136 0
-13 -123 136 0
-136 124 13 0
-136 124 123 0
-125 137 0
-13 -124 137 0
-137 125 13 0
-137 125 124 0
-126 138 0
-13 -125 138 0
-138 126 13 0
-138 126 125 0
-127 139 0
-13 -126 139 0
-139 127 13 0
-139 127 126 0
-128 140 0
-13 -127 140 0
-140 128 13 0
-140 128 127 0
-129 141 0
-13 -128 141 0
-141 129 13 0
-141 129 128 0
-130 142 0
-13 -129 142 0
-142 130 13 0
-142 130 129 0
-131 143 0
-13 -130 143 0
-143 131 13 0
-143 131 130 0
-132 144 0
-13 -131 144 0
-144 132 13 0
-144 132 131 0
-13 -132 145 0
-145 13 0
-145 132 0
-133 146 0
-14 146 0
-146 133 14 0
-134 147 0
-14 -133 147 0
-147 134 14 0
-147 134 133 0
-135 148 0
-14 -134 148 0
-148 135 14 0
-148 135 134 0
-136 149 0
-14 -135 149 0
-149 136 14 0
-149 136 135 0
-137 150 0
-14 -136 150 0
-150 137 14 0
-150 137 136 0
-138 151 0
-14 -137 151 0
-151 138 14 0
-151 138 137 0
-139 152 0
-14 -138 152 0
-152 139 14 0
-152 139 138 0
-140 153 0
-14 -139 153 0
-153 140 14 0
-153 140 139 0
-141 154 0
-14 -140 154 0
-154 141 14 0
-154 141 140 0
-142 155 0
-14 -141 155 0
-155 142 14 0
-155 142 141 0
-143 156 0
-14 -142 156 0
-156 143 14 0
-156 143 142 0
-144 157 0
-14 -143 157 0
-157 144 14 0
-157 144 143 0
-145 158 0
-14 -144 158 0
-158 145 14 0
-158 145 144 0
-14 -145 159 0
-159 14 0
-159 145 0
-146 160 0
-15 160 0
-160 146 15 0
-147 161 0
-15 -146 161 0
-161 147 15 0
-161 147 146 0
-148 162 0
-15 -147 162 0
-162 148 15 0
-162 148 147 0
-149 163 0
-15 -148 163 0
-163 149 15 0
-163 149 148 0
-150 164 0
-15 -149 164 0
-164 150 15 0
-164 150 149 0
-151 165 0
-15 -150 165 0
-165 151 15 0
-165 151 150 0
-152 166 0
-15 -151 166 0
-166 152 15 0
-166 152 151 0
-153 167 0
-15 -152 167 0
-167 153 15 0
-167 153 152 0
-154 168 0
-15 -153 168 0
-168 154 15 0
-168 154 153 0
-155 169 0
-15 -154 169 0
-169 155 15 0
-169 155 154 0
-156 170 0
-15 -155 170 0
-170 156 15 0
-170 156 155 0
-157 171 0
-15 -156 171 0
-171 157 15 0
-171 157 156 0
-158 172 0
-15 -157 172 0
-172 158 15 0
-172 158 157 0
-159 173 0
-15 -158 173 0
-173 159 15 0
-173 159 158 0
-15 -159 174 0
-174 15 0
-174 159 0
-160 175 0
-16 175 0
-175 160 16 0
-161 176 0
-16 -160 176 0
-176 161 16 0
-176 161 160 0
-162 177 0
-16 -161 177 0
-177 162 16 0
-177 162 161 0
-163 178 0
-16 -162 178 0
-178 163 16 0
-178 163 162 0
-164 179 0
-16 -163 179 0
-179 164 16 0
-179 164 163 0
-165 180 0
-16 -164 180 0
-180 165 16 0
-180 165 164 0
-166 181 0
-16 -165 181 0
-181 166 16 0
-181 166 165 0
-167 182 0
-16 -166 182 0
-182 167 16 0
-182 167 166 0
-168 183 0
-16 -167 183 0
-183 168 16 0
-183 168 167 0
-169 184 0
-16 -168 184 0
-184 169 16 0
-184 169 168 0
-170 185 0
-16 -169 185 0
-185 170 16 0
-185 170 169 0
-171 186 0
-16 -170 186 0
-186 171 16 0
-186 171 170 0
-172 187 0
-16 -171 187 0
-187 172 16 0
-187 172 171 0
-173 188 0
-16 -172 188 0
-188 173 16 0
-188 173 172 0
-174 189 0
-16 -173 189 0
-189 174 16 0
-189 174 173 0
-16 -174 190 0
-190 16 0
-190 174 0
-175 191 0
-17 191 0
-191 175 17 0
-176 192 0
-17 -175 192 0
-192 176 17 0
-192 176 175 0
-177 193 0
-17 -176 193 0
-193 177 17 0
-193 177 176 0
-178 194 0
-17 -177 194 0
-194 178 17 0
-194 178 177 0
-179 195 0
-17 -178 195 0
-195 179 17 0
-195 179 178 0
-180 196 0
-17 -179 196 0
-196 180 17 0
-196 180 179 0
-181 197 0
-17 -180 197 0
-197 181 17 0
-197 181 180 0
-182 198 0
-17 -181 198 0
-198 182 17 0
-198 182 181 0
-183 199 0
-17 -182 199 0
-199 183 17 0
-199 183 182 0
-184 200 0
-17 -183 200 0
-200 184 17 0
-200 184 183 0
-185 201 0
-17 -184 201 0
-201 185 17 0
-201 185 184 0
-186 202 0
-17 -185 202 0
-202 186 17 0
-202 186 185 0
-187 203 0
-17 -186 203 0
-203 187 17 0
-203 187 186 0
-188 204 0
-17 -187 204 0
-204 188 17 0
-204 188 187 0
-189 205 0
-17 -188 205 0
-205 189 17 0
-205 189 188 0
-190 206 0
-17 -189 206 0
-206 190 17 0
-206 190 189 0
-17 -190 207 0
-207 17 0
-207 190 0
-191 208 0
-18 208 0
-208 191 18 0
-192 209 0
-18 -191 209 0
-209 192 18 0
-209 192 191 0
-193 210 0
-18 -192 210 0
-210 193 18 0
-210 193 192 0
-194 211 0
-18 -193 211 0
-211 194 18 0
-211 194 193 0
-195 212 0
-18 -194 212 0
-212 195 18 0
-212 195 194 0
-196 213 0
-18 -195 213 0
-213 196 18 0
-213 196 195 0
-197 214 0
-18 -196 214 0
-214 197 18 0
-214 197 196 0
-198 215 0
-18 -197 215 0
-215 198 18 0
-215 198 197 0
-199 216 0
-18 -198 216 0
-216 199 18 0
-216 199 198 0
-200 217 0
-18 -199 217 0
-217 200 18 0
-217 200 199 0
-201 218 0
-18 -200 218 0
-218 201 18 0
-218 201 200 0
-202 219 0
-18 -201 219 0
-219 202 18 0
-219 202 201 0
-203 220 0
-18 -202 220 0
-220 203 18 0
-220 203 202 0
-204 221 0
-18 -203 221 0
-221 204 18 0
-221 204 203 0
-205 222 0
-18 -204 222 0
-222 205 18 0
-222 205 204 0
-206 223 0
-18 -205 223 0
-223 206 18 0
-223 206 205 0
-207 224 0
-18 -206 224 0
-224 207 18 0
-224 207 206 0
-18 -207 225 0
-225 18 0
-225 207 0
-208 226 0
-19 226 0
-226 208 19 0
-209 227 0
-19 -208 227 0
-227 209 19 0
-227 209 208 0
-210 228 0
-19 -209 228 0
-228 210 19 0
-228 210 209 0
-211 229 0
-19 -210 229 0
-229 211 19 0
-229 211 210 0
-212 230 0
-19 -211 230 0
-230 212 19 0
-230 212 211 0
-213 231 0
-19 -212 231 0
-231 213 19 0
-231 213 212 0
-214 232 0
-19 -213 232 0
-232 214 19 0
-232 214 213 0
-215 233 0
-19 -214 233 0
-233 215 19 0
-233 215 214 0
-216 234 0
-19 -215 234 0
-234 216 19 0
-234 216 215 0
-217 235 0
-19 -216 235 0
-235 217 19 0
-235 217 216 0
-218 236 0
-19 -217 236 0
-236 218 19 0
-236 218 217 0
-219 237 0
-19 -218 237 0
-237 219 19 0
-237 219 218 0
-220 238 0
-19 -219 238 0
-238 220 19 0
-238 220 219 0
-221 239 0
-19 -220 239 0
-239 221 19 0
-239 221 220 0
-222 240 0
-19 -221 240 0
-240 222 19 0
-240 222 221 0
-223 241 0
-19 -222 241 0
-241 223 19 0
-241 223 222 0
-224 242 0
-19 -223 242 0
-242 224 19 0
-242 224 223 0
-225 243 0
-19 -224 243 0
-243 225 19 0
-243 225 224 0
-19 -225 244 0
-244 19 0
-244 225 0
-226 245 0
-20 245 0
-245 226 20 0
-227 246 0
-20 -226 246 0
-246 227 20 0
-246 227 226 0
-228 247 0
-20 -227 247 0
-247 228 20 0
-247 228 227 0
-229 248 0
-20 -228 248 0
-248 229 20 0
-248 229 228 0
-230 249 0
-20 -229 249 0
-249 230 20 0
-249 230 229 0
-231 250 0
-20 -230 250 0
-250 231 20 0
-250 231 230 0
-232 251 0
-20 -231 251 0
-251 232 20 0
-251 232 231 0
-233 252 0
-20 -232 252 0
-252 233 20 0
-252 233 232 0
-234 253 0
-20 -233 253 0
-253 234 20 0
-253 234 233 0
-235 254 0
-20 -234 254 0
-254 235 20 0
-254 235 234 0
-236 255 0
-20 -235 255 0
-255 236 20 0
-255 236 235 0
-237 256 0
-20 -236 256 0
-256 237 20 0
-256 237 236 0
-238 257 0
-20 -237 257 0
-257 238 20 0
-257 238 237 0
-239 258 0
-20 -238 258 0
-258 239 20 0
-258 239 238 0
-240 259 0
-20 -239 259 0
-259 240 20 0
-259 240 239 0
-241 260 0
-20 -240 260 0
-260 241 20 0
-260 241 240 0
-242 261 0
-20 -241 261 0
-261 242 20 0
-261 242 241 0
-243 262 0
-20 -242 262 0
-262 243 20 0
-262 243 242 0
-244 263 0
-20 -243 263 0
-263 244 20 0
-263 244 243 0
-20 -244 264 0
-264 20 0
-264 244 0
-245 265 0
-21 265 0
-265 245 21 0
-246 266 0
-21 -245 266 0
-266 246 21 0
-266 246 245 0
-247 267 0
-21 -246 267 0
-267 247 21 0
-267 247 246 0
-248 268 0
-21 -247 268 0
-268 248 21 0
-268 248 247 0
-249 269 0
-21 -248 269 0
-269 249 21 0
-269 249 248 0
-250 270 0
-21 -249 270 0
-270 250 21 0
-270 250 249 0
-251 271 0
-21 -250 271 0
-271 251 21 0
-271 251 250 0
-252 272 0
-21 -251 272 0
-272 252 21 0
-272 252 251 0
-253 273 0
-21 -252 273 0
-273 253 21 0
-273 253 252 0
-254 274 0
-21 -253 274 0
-274 254 21 0
-274 254 253 0
-255 275 0
-21 -254 275 0
-275 255 21 0
-275 255 254 0
-256 276 0
-21 -255 276 0
-276 256 21 0
-276 256 255 0
-257 277 0
-21 -256 277 0
-277 257 21 0
-277 257 256 0
-258 278 0
-21 -257 278 0
-278 258 21 0
-278 258 257 0
-259 279 0
-21 -258 279 0
-279 259 21 0
-279 259 258 0
-260 280 0
-21 -259 280 0
-280 260 21 0
-280 260 259 0
-261 281 0
-21 -260 281 0
-281 261 21 0
-281 261 260 0
-262 282 0
-21 -261 282 0
-282 262 21 0
-282 262 261 0
-263 283 0
-21 -262 283 0
-283 263 21 0
-283 263 262 0
-264 284 0
-21 -263 284 0
-284 264 21 0
-284 264 263 0
-265 285 0
-22 285 0
-285 265 22 0
-266 286 0
-22 -265 286 0
-286 266 22 0
-286 266 265 0
-267 287 0
-22 -266 287 0
-287 267 22 0
-287 267 266 0
-268 288 0
-22 -267 288 0
-288 268 22 0
-288 268 267 0
-269 289 0
-22 -268 289 0
-289 269 22 0
-289 269 268 0
-270 290 0
-22 -269 290 0
-290 270 22 0
-290 270 269 0
-271 291 0
-22 -270 291 0
-291 271 22 0
-291 271 270 0
-272 292 0
-22 -271 292 0
-292 272 22 0
-292 272 271 0
-273 293 0
-22 -272 293 0
-293 273 22 0
-293 273 272 0
-274 294 0
-22 -273 294 0
-294 274 22 0
-294 274 273 0
-275 295 0
-22 -274 295 0
-295 275 22 0
-295 275 274 0
-276 296 0
-22 -275 296 0
-296 276 22 0
-296 276 275 0
-277 297 0
-22 -276 297 0
-297 277 22 0
-297 277 276 0
-278 298 0
-22 -277 298 0
-298 278 22 0
-298 278 277 0
-279 299 0
-22 -278 299 0
-299 279 22 0
-299 279 278 0
-280 300 0
-22 -279 300 0
-300 280 22 0
-300 280 279 0
-281 301 0
-22 -280 301 0
-301 281 22 0
-301 281 280 0
-282 302 0
-22 -281 302 0
-302 282 22 0
-302 282 281 0
-283 303 0
-22 -282 303 0
-303 283 22 0
-303 283 282 0
-284 304 0
-22 -283 304 0
-304 284 22 0
-304 284 283 0
-285 305 0
-23 305 0
-305 285 23 0
-286 306 0
-23 -285 306 0
-306 286 23 0
-306 286 285 0
-287 307 0
-23 -286 307 0
-307 287 23 0
-307 287 286 0
-288 308 0
-23 -287 308 0
-308 288 23 0
-308 288 287 0
-289 309 0
-23 -288 309 0
-309 289 23 0
-309 289 288 0
-290 310 0
-23 -289 310 0
-310 290 23 0
-310 290 289 0
-291 311 0
-23 -290 311 0
-311 291 23 0
-311 291 290 0
-292 312 0
-23 -291 312 0
-312 292 23 0
-312 292 291 0
-293 313 0
-23 -292 313 0
-313 293 23 0
-313 293 292 0
-294 314 0
-23 -293 314 0
-314 294 23 0
-314 294 293 0
-295 315 0
-23 -294 315 0
-315 295 23 0
-315 295 294 0
-296 316 0
-23 -295 316 0
-316 296 23 0
-316 296 295 0
-297 317 0
-23 -296 317 0
-317 297 23 0
-317 297 296 0
-298 318 0
-23 -297 318 0
-318 298 23 0
-318 298 297 0
-299 319 0
-23 -298 319 0
-319 299 23 0
-319 299 298 0
-300 320 0
-23 -299 320 0
-320 300 23 0
-320 300 299 0
-301 321 0
-23 -300 321 0
-321 301 23 0
-321 301 300 0
-302 322 0
-23 -301 322 0
-322 302 23 0
-322 302 301 0
-303 323 0
-23 -302 323 0
-323 303 23 0
-323 303 302 0
-304 324 0
-23 -303 324 0
-324 304 23 0
-324 304 303 0
-305 325 0
-24 325 0
-325 305 24 0
-306 326 0
-24 -305 326 0
-326 306 24 0
-326 306 305 0
-307 327 0
-24 -306 327 0
-327 307 24 0
-327 307 306 0
-308 328 0
-24 -307 328 0
-328 308 24 0
-328 308 307 0
-309 329 0
-24 -308 329 0
-329 309 24 0
-329 309 308 0
-310 330 0
-24 -309 330 0
-330 310 24 0
-330 310 309 0
-311 331 0
-24 -310 331 0
-331 311 24 0
-331 311 310 0
-312 332 0
-24 -311 332 0
-332 312 24 0
-332 312 311 0
-313 333 0
-24 -312 333 0
-333 313 24 0
-333 313 312 0
-314 334 0
-24 -313 334 0
-334 314 24 0
-334 314 313 0
-315 335 0
-24 -314 335 0
-335 315 24 0
-335 315 314 0
-316 336 0
-24 -315 336 0
-336 316 24 0
-336 316 315 0
-317 337 0
-24 -316 337 0
-337 317 24 0
-337 317 316 0
-318 338 0
-24 -317 338 0
-338 318 24 0
-338 318 317 0
-319 339 0
-24 -318 339 0
-339 319 24 0
-339 319 318 0
-320 340 0
-24 -319 340 0
-340 320 24 0
-340 320 319 0
-321 341 0
-24 -320 341 0
-341 321 24 0
-341 321 320 0
-322 342 0
-24 -321 342 0
-342 322 24 0
-342 322 321 0
-323 343 0
-24 -322 343 0
-343 323 24 0
-343 323 322 0
-324 344 0
-24 -323 344 0
-344 324 24 0
-344 324 323 0
-325 345 0
-25 345 0
-345 325 25 0
-326 346 0
-25 -325 346 0
-346 326 25 0
-346 326 325 0
-327 347 0
-25 -326 347 0
-347 327 25 0
-347 327 326 0
-328 348 0
-25 -327 348 0
-348 328 25 0
-348 328 327 0
-329 349 0
-25 -328 349 0
-349 329 25 0
-349 329 328 0
-330 350 0
-25 -329 350 0
-350 330 25 0
-350 330 329 0
-331 351 0
-25 -330 351 0
-351 331 25 0
-351 331 330 0
-332 352 0
-25 -331 352 0
-352 332 25 0
-352 332 331 0
-333 353 0
-25 -332 353 0
-353 333 25 0
-353 333 332 0
-334 354 0
-25 -333 354 0
-354 334 25 0
-354 334 333 0
-335 355 0
-25 -334 355 0
-355 335 25 0
-355 335 334 0
-336 356 0
-25 -335 356 0
-356 336 25 0
-356 336 335 0
-337 357 0
-25 -336 357 0
-357 337 25 0
-357 337 336 0
-338 358 0
-25 -337 358 0
-358 338 25 0
-358 338 337 0
-339 359 0
-25 -338 359 0
-359 339 25 0
-359 339 338 0
-340 360 0
-25 -339 360 0
-360 340 25 0
-360 340 339 0
-341 361 0
-25 -340 361 0
-361 341 25 0
-361 341 340 0
-342 362 0
-25 -341 362 0
-362 342 25 0
-362 342 341 0
-343 363 0
-25 -342 363 0
-363 343 25 0
-363 343 342 0
-344 364 0
-25 -343 364 0
-364 344 25 0
-364 344 343 0
-345 365 0
-26 365 0
-365 345 26 0
-346 366 0
-26 -345 366 0
-366 346 26 0
-366 346 345 0
-347 367 0
-26 -346 367 0
-367 347 26 0
-367 347 346 0
-348 368 0
-26 -347 368 0
-368 348 26 0
-368 348 347 0
-349 369 0
-26 -348 369 0
-369 349 26 0
-369 349 348 0
-350 370 0
-26 -349 370 0
-370 350 26 0
-370 350 349 0
-351 371 0
-26 -350 371 0
-371 351 26 0
-371 351 350 0
-352 372 0
-26 -351 372 0
-372 352 26 0
-372 352 351 0
-353 373 0
-26 -352 373 0
-373 353 26 0
-373 353 352 0
-354 374 0
-26 -353 374 0
-374 354 26 0
-374 354 353 0
-355 375 0
-26 -354 375 0
-375 355 26 0
-375 355 354 0
-356 376 0
-26 -355 376 0
-376 356 26 0
-376 356 355 0
-357 377 0
-26 -356 377 0
-377 357 26 0
-377 357 356 0
-358 378 0
-26 -357 378 0
-378 358 26 0
-378 358 357 0
-359 379 0
-26 -358 379 0
-379 359 26 0
-379 359 358 0
-360 380 0
-26 -359 380 0
-380 360 26 0
-380 360 359 0
-361 381 0
-26 -360 381 0
-381 361 26 0
-381 361 360 0
-362 382 0
-26 -361 382 0
-382 362 26 0
-382 362 361 0
-363 383 0
-26 -362 383 0
-383 363 26 0
-383 363 362 0
-364 384 0
-26 -363 384 0
-384 364 26 0
-384 364 363 0
-365 385 0
-27 385 0
-385 365 27 0
-366 386 0
-27 -365 386 0
-386 366 27 0
-386 366 365 0
-367 387 0
-27 -366 387 0
-387 367 27 0
-387 367 366 0
-368 388 0
-27 -367 388 0
-388 368 27 0
-388 368 367 0
-369 389 0
-27 -368 389 0
-389 369 27 0
-389 369 368 0
-370 390 0
-27 -369 390 0
-390 370 27 0
-390 370 369 0
-371 391 0
-27 -370 391 0
-391 371 27 0
-391 371 370 0
-372 392 0
-27 -371 392 0
-392 372 27 0
-392 372 371 0
-373 393 0
-27 -372 393 0
-393 373 27 0
-393 373 372 0
-374 394 0
-27 -373 394 0
-394 374 27 0
-394 374 373 0
-375 395 0
-27 -374 395 0
-395 375 27 0
-395 375 374 0
-376 396 0
-27 -375 396 0
-396 376 27 0
-396 376 375 0
-377 397 0
-27 -376 397 0
-397 377 27 0
-397 377 376 0
-378 398 0
-27 -377 398 0
-398 378 27 0
-398 378 377 0
-379 399 0
-27 -378 399 0
-399 379 27 0
-399 379 378 0
-380 400 0
-27 -379 400 0
-400 380 27 0
-400 380 379 0
-381 401 0
-27 -380 401 0
-401 381 27 0
-401 381 380 0
-382 402 0
-27 -381 402 0
-402 382 27 0
-402 382 381 0
-383 403 0
-27 -382 403 0
-403 383 27 0
-403 383 382 0
-384 404 0
-27 -383 404 0
-404 384 27 0
-404 384 383 0
-385 405 0
-28 405 0
-405 385 28 0
-386 406 0
-28 -385 406 0
-406 386 28 0
-406 386 385 0
-387 407 0
-28 -386 407 0
-407 387 28 0
-407 387 386 0
-388 408 0
-28 -387 408 0
-408 388 28 0
-408 388 387 0
-389 409 0
-28 -388 409 0
-409 389 28 0
-409 389 388 0
-390 410 0
-28 -389 410 0
-410 390 28 0
-410 390 389 0
-391 411 0
-28 -390 411 0
-411 391 28 0
-411 391 390 0
-392 412 0
-28 -391 412 0
-412 392 28 0
-412 392 391 0
-393 413 0
-28 -392 413 0
-413 393 28 0
-413 393 392 0
-394 414 0
-28 -393 414 0
-414 394 28 0
-414 394 393 0
-395 415 0
-28 -394 415 0
-415 395 28 0
-415 395 394 0
-396 416 0
-28 -395 416 0
-416 396 28 0
-416 396 395 0
-397 417 0
-28 -396 417 0
-417 397 28 0
-417 397 396 0
-398 418 0
-28 -397 418 0
-418 398 28 0
-418 398 397 0
-399 419 0
-28 -398 419 0
-419 399 28 0
-419 399 398 0
-400 420 0
-28 -399 420 0
-420 400 28 0
-420 400 399 0
-401 421 0
-28 -400 421 0
-421 401 28 0
-421 401 400 0
-402 422 0
-28 -401 422 0
-422 402 28 0
-422 402 401 0
-403 423 0
-28 -402 423 0
-423 403 28 0
-423 403 402 0
-404 424 0
-28 -403 424 0
-424 404 28 0
-424 404 403 0
-405 425 0
-29 425 0
-425 405 29 0
-406 426 0
-29 -405 426 0
-426 406 29 0
-426 406 405 0
-407 427 0
-29 -406 427 0
-427 407 29 0
-427 407 406 0
-408 428 0
-29 -407 428 0
-428 408 29 0
-428 408 407 0
-409 429 0
-29 -408 429 0
-429 409 29 0
-429 409 408 0
-410 430 0
-29 -409 430 0
-430 410 29 0
-430 410 409 0
-411 431 0
-29 -410 431 0
-431 411 29 0
-431 411 410 0
-412 432 0
-29 -411 432 0
-432 412 29 0
-432 412 411 0
-413 433 0
-29 -412 433 0
-433 413 29 0
-433 413 412 0
-414 434 0
-29 -413 434 0
-434 414 29 0
-434 414 413 0
-415 435 0
-29 -414 435 0
-435 415 29 0
-435 415 414 0
-416 436 0
-29 -415 436 0
-436 416 29 0
-436 416 415 0
-417 437 0
-29 -416 437 0
-437 417 29 0
-437 417 416 0
-418 438 0
-29 -417 438 0
-438 418 29 0
-438 418 417 0
-419 439 0
-29 -418 439 0
-439 419 29 0
-439 419 418 0
-420 440 0
-29 -419 440 0
-440 420 29 0
-440 420 419 0
-421 441 0
-29 -420 441 0
-441 421 29 0
-441 421 420 0
-422 442 0
-29 -421 442 0
-442 422 29 0
-442 422 421 0
-423 443 0
-29 -422 443 0
-443 423 29 0
-443 423 422 0
-424 444 0
-29 -423 444 0
-444 424 29 0
-444 424 423 0
-425 445 0
-30 445 0
-445 425 30 0
-426 446 0
-30 -425 446 0
-446 426 30 0
-446 426 425 0
-427 447 0
-30 -426 447 0
-447 427 30 0
-447 427 426 0
-428 448 0
-30 -427 448 0
-448 428 30 0
-448 428 427 0
-429 449 0
-30 -428 449 0
-449 429 30 0
-449 429 428 0
-430 450 0
-30 -429 450 0
-450 430 30 0
-450 430 429 0
-431 451 0
-30 -430 451 0
-451 431 30 0
-451 431 430 0
-432 452 0
-30 -431 452 0
-452 432 30 0
-452 432 431 0
-433 453 0
-30 -432 453 0
-453 433 30 0
-453 433 432 0
-434 454 0
-30 -433 454 0
-454 434 30 0
-454 434 433 0
-435 455 0
-30 -434 455 0
-455 435 30 0
-455 435 434 0
-436 456 0
-30 -435 456 0
-456 436 30 0
-456 436 435 0
-437 457 0
-30 -436 457 0
-457 437 30 0
-457 437 436 0
-438 458 0
-30 -437 458 0
-458 438 30 0
-458 438 437 0
-439 459 0
-30 -438 459 0
-459 439 30 0
-459 439 438 0
-440 460 0
-30 -439 460 0
-460 440 30 0
-460 440 439 0
-441 461 0
-30 -440 461 0
-461 441 30 0
-461 441 440 0
-442 462 0
-30 -441 462 0
-462 442 30 0
-462 442 441 0
-443 463 0
-30 -442 463 0
-463 443 30 0
-463 443 442 0
-444 464 0
-30 -443 464 0
-464 444 30 0
-464 444 443 0
-445 465 0
-31 465 0
-465 445 31 0
-446 466 0
-31 -445 466 0
-466 446 31 0
-466 446 445 0
-447 467 0
-31 -446 467 0
-467 447 31 0
-467 447 446 0
-448 468 0
-31 -447 468 0
-468 448 31 0
-468 448 447 0
-449 469 0
-31 -448 469 0
-469 449 31 0
-469 449 448 0
-450 470 0
-31 -449 470 0
-470 450 31 0
-470 450 449 0
-451 471 0
-31 -450 471 0
-471 451 31 0
-471 451 450 0
-452 472 0
-31 -451 472 0
-472 452 31 0
-472 452 451 0
-453 473 0
-31 -452 473 0
-473 453 31 0
-473 453 452 0
-454 474 0
-31 -453 474 0
-474 454 31 0
-474 454 453 0
-455 475 0
-31 -454 475 0
-475 455 31 0
-475 455 454 0
-456 476 0
-31 -455 476 0
-476 456 31 0
-476 456 455 0
-457 477 0
-31 -456 477 0
-477 457 31 0
-477 457 456 0
-458 478 0
-31 -457 478 0
-478 458 31 0
-478 458 457 0
-459 479 0
-31 -458 479 0
-479 459 31 0
-479 459 458 0
-460 480 0
-31 -459 480 0
-480 460 31 0
-480 460 459 0
-461 481 0
-31 -460 481 0
-481 461 31 0
-481 461 460 0
-462 482 0
-31 -461 482 0
-482 462 31 0
-482 462 461 0
-463 483 0
-31 -462 483 0
-483 463 31 0
-483 463 462 0
-464 484 0
-31 -463 484 0
-484 464 31 0
-484 464 463 0
-465 485 0
-32 485 0
-485 465 32 0
-466 486 0
-32 -465 486 0
-486 466 32 0
-486 466 465 0
-467 487 0
-32 -466 487 0
-487 467 32 0
-487 467 466 0
-468 488 0
-32 -467 488 0
-488 468 32 0
-488 468 467 0
-469 489 0
-32 -468 489 0
-489 469 32 0
-489 469 468 0
-470 490 0
-32 -469 490 0
-490 470 32 0
-490 470 469 0
-471 491 0
-32 -470 491 0
-491 471 32 0
-491 471 470 0
-472 492 0
-32 -471 492 0
-492 472 32 0
-492 472 471 0
-473 493 0
-32 -472 493 0
-493 473 32 0
-493 473 472 0
-474 494 0
-32 -473 494 0
-494 474 32 0
-494 474 473 0
-475 495 0
-32 -474 495 0
-495 475 32 0
-495 475 474 0
-476 496 0
-32 -475 496 0
-496 476 32 0
-496 476 475 0
-477 497 0
-32 -476 497 0
-497 477 32 0
-497 477 476 0
-478 498 0
-32 -477 498 0
-498 478 32 0
-498 478 477 0
-479 499 0
-32 -478 499 0
-499 479 32 0
-499 479 478 0
-480 500 0
-32 -479 500 0
-500 480 32 0
-500 480 479 0
-481 501 0
-32 -480 501 0
-501 481 32 0
-501 481 480 0
-482 502 0
-32 -481 502 0
-502 482 32 0
-502 482 481 0
-483 503 0
-32 -482 503 0
-503 483 32 0
-503 483 482 0
-484 504 0
-32 -483 504 0
-504 484 32 0
-504 484 483 0
-485 505 0
-33 505 0
-505 485 33 0
-486 506 0
-33 -485 506 0
-506 486 33 0
-506 486 485 0
-487 507 0
-33 -486 507 0
-507 487 33 0
-507 487 486 0
-488 508 0
-33 -487 508 0
-508 488 33 0
-508 488 487 0
-489 509 0
-33 -488 509 0
-509 489 33 0
-509 489 488 0
-490 510 0
-33 -489 510 0
-510 490 33 0
-510 490 489 0
-491 511 0
-33 -490 511 0
-511 491 33 0
-511 491 490 0
-492 512 0
-33 -491 512 0
-512 492 33 0
-512 492 491 0
-493 513 0
-33 -492 513 0
-513 493 33 0
-513 493 492 0
-494 514 0
-33 -493 514 0
-514 494 33 0
-514 494 493 0
-495 515 0
-33 -494 515 0
-515 495 33 0
-515 495 494 0
-496 516 0
-33 -495 516 0
-516 496 33 0
-516 496 495 0
-497 517 0
-33 -496 517 0
-517 497 33 0
-517 497 496 0
-498 518 0
-33 -497 518 0
-518 498 33 0
-518 498 497 0
-499 519 0
-33 -498 519 0
-519 499 33 0
-519 499 498 0
-500 520 0
-33 -499 520 0
-520 500 33 0
-520 500 499 0
-501 521 0
-33 -500 521 0
-521 501 33 0
-521 501 500 0
-502 522 0
-33 -501 522 0
-522 502 33 0
-522 502 501 0
-503 523 0
-33 -502 523 0
-523 503 33 0
-523 503 502 0
-504 524 0
-33 -503 524 0
-524 504 33 0
-524 504 503 0
-505 525 0
-34 525 0
-525 505 34 0
-506 526 0
-34 -505 526 0
-526 506 34 0
-526 506 505 0
-507 527 0
-34 -506 527 0
-527 507 34 0
-527 507 506 0
-508 528 0
-34 -507 528 0
-528 508 34 0
-528 508 507 0
-509 529 0
-34 -508 529 0
-529 509 34 0
-529 509 508 0
-510 530 0
-34 -509 530 0
-530 510 34 0
-530 510 509 0
-511 531 0
-34 -510 531 0
-531 511 34 0
-531 511 510 0
-512 532 0
-34 -511 532 0
-532 512 34 0
-532 512 511 0
-513 533 0
-34 -512 533 0
-533 513 34 0
-533 513 512 0
-514 534 0
-34 -513 534 0
-534 514 34 0
-534 514 513 0
-515 535 0
-34 -514 535 0
-535 515 34 0
-535 515 514 0
-516 536 0
-34 -515 536 0
-536 516 34 0
-536 516 515 0
-517 537 0
-34 -516 537 0
-537 517 34 0
-537 517 516 0
-518 538 0
-34 -517 538 0
-538 518 34 0
-538 518 517 0
-519 539 0
-34 -518 539 0
-539 519 34 0
-539 519 518 0
-520 540 0
-34 -519 540 0
-540 520 34 0
-540 520 519 0
-521 541 0
-34 -520 541 0
-541 521 34 0
-541 521 520 0
-522 542 0
-34 -521 542 0
-542 522 34 0
-542 522 521 0
-523 543 0
-34 -522 543 0
-543 523 34 0
-543 523 522 0
-524 544 0
-34 -523 544 0
-544 524 34 0
-544 524 523 0
-525 545 0
-35 545 0
-545 525 35 0
-526 546 0
-35 -525 546 0
-546 526 35 0
-546 526 525 0
-527 547 0
-35 -526 547 0
-547 527 35 0
-547 527 526 0
-528 548 0
-35 -527 548 0
-548 528 35 0
-548 528 527 0
-529 549 0
-35 -528 549 0
-549 529 35 0
-549 529 528 0
-530 550 0
-35 -529 550 0
-550 530 35 0
-550 530 529 0
-531 551 0
-35 -530 551 0
-551 531 35 0
-551 531 530 0
-532 552 0
-35 -531 552 0
-552 532 35 0
-552 532 531 0
-533 553 0
-35 -532 553 0
-553 533 35 0
-553 533 532 0
-534 554 0
-35 -533 554 0
-554 534 35 0
-554 534 533 0
-535 555 0
-35 -534 555 0
-555 535 35 0
-555 535 534 0
-536 556 0
-35 -535 556 0
-556 536 35 0
-556 536 535 0
-537 557 0
-35 -536 557 0
-557 537 35 0
-557 537 536 0
-538 558 0
-35 -537 558 0
-558 538 35 0
-558 538 537 0
-539 559 0
-35 -538 559 0
-559 539 35 0
-559 539 538 0
-540 560 0
-35 -539 560 0
-560 540 35 0
-560 540 539 0
-541 561 0
-35 -540 561 0
-561 541 35 0
-561 541 540 0
-542 562 0
-35 -541 562 0
-562 542 35 0
-562 542 541 0
-543 563 0
-35 -542 563 0
-563 543 35 0
-563 543 542 0
-544 564 0
-35 -543 564 0
-564 544 35 0
-564 544 543 0
-545 565 0
-36 565 0
-565 545 36 0
-546 566 0
-36 -545 566 0
-566 546 36 0
-566 546 545 0
-547 567 0
-36 -546 567 0
-567 547 36 0
-567 547 546 0
-548 568 0
-36 -547 568 0
-568 548 36 0
-568 548 547 0
-549 569 0
-36 -548 569 0
-569 549 36 0
-569 549 548 0
-550 570 0
-36 -549 570 0
-570 550 36 0
-570 550 549 0
-551 571 0
-36 -550 571 0
-571 551 36 0
-571 551 550 0
-552 572 0
-36 -551 572 0
-572 552 36 0
-572 552 551 0
-553 573 0
-36 -552 573 0
-573 553 36 0
-573 553 552 0
-554 574 0
-36 -553 574 0
-574 554 36 0
-574 554 553 0
-555 575 0
-36 -554 575 0
-575 555 36 0
-575 555 554 0
-556 576 0
-36 -555 576 0
-576 556 36 0
-576 556 555 0
-557 577 0
-36 -556 577 0
-577 557 36 0
-577 557 556 0
-558 578 0
-36 -557 578 0
-578 558 36 0
-578 558 557 0
-559 579 0
-36 -558 579 0
-579 559 36 0
-579 559 558 0
-560 580 0
-36 -559 580 0
-580 560 36 0
-580 560 559 0
-561 581 0
-36 -560 581 0
-581 561 36 0
-581 561 560 0
-562 582 0
-36 -561 582 0
-582 562 36 0
-582 562 561 0
-563 583 0
-36 -562 583 0
-583 563 36 0
-583 563 562 0
-564 584 0
-36 -563 584 0
-584 564 36 0
-584 564 563 0
-565 585 0
-37 585 0
-585 565 37 0
-566 586 0
-37 -565 586 0
-586 566 37 0
-586 566 565 0
-567 587 0
-37 -566 587 0
-587 567 37 0
-587 567 566 0
-568 588 0
-37 -567 588 0
-588 568 37 0
-588 568 567 0
-569 589 0
-37 -568 589 0
-589 569 37 0
-589 569 568 0
-570 590 0
-37 -569 590 0
-590 570 37 0
-590 570 569 0
-571 591 0
-37 -570 591 0
-591 571 37 0
-591 571 570 0
-572 592 0
-37 -571 592 0
-592 572 37 0
-592 572 571 0
-573 593 0
-37 -572 593 0
-593 573 37 0
-593 573 572 0
-574 594 0
-37 -573 594 0
-594 574 37 0
-594 574 573 0
-575 595 0
-37 -574 595 0
-595 575 37 0
-595 575 574 0
-576 596 0
-37 -575 596 0
-596 576 37 0
-596 576 575 0
-577 597 0
-37 -576 597 0
-597 577 37 0
-597 577 576 0
-578 598 0
-37 -577 598 0
-598 578 37 0
-598 578 577 0
-579 599 0
-37 -578 599 0
-599 579 37 0
-599 579 578 0
-580 600 0
-37 -579 600 0
-600 580 37 0
-600 580 579 0
-581 601 0
-37 -580 601 0
-601 581 37 0
-601 581 580 0
-582 602 0
-37 -581 602 0
-602 582 37 0
-602 582 581 0
-583 603 0
-37 -582 603 0
-603 583 37 0
-603 583 582 0
-584 604 0
-37 -583 604 0
-604 584 37 0
-604 584 583 0
-585 605 0
-38 605 0
-605 585 38 0
-586 606 0
-38 -585 606 0
-606 586 38 0
-606 586 585 0
-587 607 0
-38 -586 607 0
-607 587 38 0
-607 587 586 0
-588 608 0
-38 -587 608 0
-608 588 38 0
-608 588 587 0
-589 609 0
-38 -588 609 0
-609 589 38 0
-609 589 588 0
-590 610 0
-38 -589 610 0
-610 590 38 0
-610 590 589 0
-591 611 0
-38 -590 611 0
-611 591 38 0
-611 591 590 0
-592 612 0
-38 -591 612 0
-612 592 38 0
-612 592 591 0
-593 613 0
-38 -592 613 0
-613 593 38 0
-613 593 592 0
-594 614 0
-38 -593 614 0
-614 594 38 0
-614 594 593 0
-595 615 0
-38 -594 615 0
-615 595 38 0
-615 595 594 0
-596 616 0
-38 -595 616 0
-616 596 38 0
-616 596 595 0
-597 617 0
-38 -596 617 0
-617 597 38 0
-617 597 596 0
-598 618 0
-38 -597 618 0
-618 598 38 0
-618 598 597 0
-599 619 0
-38 -598 619 0
-619 599 38 0
-619 599 598 0
-600 620 0
-38 -599 620 0
-620 600 38 0
-620 600 599 0
-601 621 0
-38 -600 621 0
-621 601 38 0
-621 601 600 0
-602 622 0
-38 -601 622 0
-622 602 38 0
-622 602 601 0
-603 623 0
-38 -602 623 0
-623 603 38 0
-623 603 602 0
-604 624 0
-38 -603 624 0
-624 604 38 0
-624 604 603 0
-605 625 0
-39 625 0
-625 605 39 0
-606 626 0
-39 -605 626 0
-626 606 39 0
-626 606 605 0
-607 627 0
-39 -606 627 0
-627 607 39 0
-627 607 606 0
-608 628 0
-39 -607 628 0
-628 608 39 0
-628 608 607 0
-609 629 0
-39 -608 629 0
-629 609 39 0
-629 609 608 0
-610 630 0
-39 -609 630 0
-630 610 39 0
-630 610 609 0
-611 631 0
-39 -610 631 0
-631 611 39 0
-631 611 610 0
-612 632 0
-39 -611 632 0
-632 612 39 0
-632 612 611 0
-613 633 0
-39 -612 633 0
-633 613 39 0
-633 613 612 0
-614 634 0
-39 -613 634 0
-634 614 39 0
-634 614 613 0
-615 635 0
-39 -614 635 0
-635 615 39 0
-635 615 614 0
-616 636 0
-39 -615 636 0
-636 616 39 0
-636 616 615 0
-617 637 0
-39 -616 637 0
-637 617 39 0
-637 617 616 0
-618 638 0
-39 -617 638 0
-638 618 39 0
-638 618 617 0
-619 639 0
-39 -618 639 0
-639 619 39 0
-639 619 618 0
-620 640 0
-39 -619 640 0
-640 620 39 0
-640 620 619 0
-621 641 0
-39 -620 641 0
-641 621 39 0
-641 621 620 0
-622 642 0
-39 -621 642 0
-642 622 39 0
-642 622 621 0
-623 643 0
-39 -622 643 0
-643 623 39 0
-643 623 622 0
-624 644 0
-39 -623 644 0
-644 624 39 0
-644 624 623 0
-625 645 0
-40 645 0
-645 625 40 0
-626 646 0
-40 -625 646 0
-646 626 40 0
-646 626 625 0
-627 647 0
-40 -626 647 0
-647 627 40 0
-647 627 626 0
-628 648 0
-40 -627 648 0
-648 628 40 0
-648 628 627 0
-629 649 0
-40 -628 649 0
-649 629 40 0
-649 629 628 0
-630 650 0
-40 -629 650 0
-650 630 40 0
-650 630 629 0
-631 651 0
-40 -630 651 0
-651 631 40 0
-651 631 630 0
-632 652 0
-40 -631 652 0
-652 632 40 0
-652 632 631 0
-633 653 0
-40 -632 653 0
-653 633 40 0
-653 633 632 0
-634 654 0
-40 -633 654 0
-654 634 40 0
-654 634 633 0
-635 655 0
-40 -634 655 0
-655 635 40 0
-655 635 634 0
-636 656 0
-40 -635 656 0
-656 636 40 0
-656 636 635 0
-637 657 0
-40 -636 657 0
-657 637 40 0
-657 637 636 0
-638 658 0
-40 -637 658 0
-658 638 40 0
-658 638 637 0
-639 659 0
-40 -638 659 0
-659 639 40 0
-659 639 638 0
-640 660 0
-40 -639 660 0
-660 640 40 0
-660 640 639 0
-641 661 0
-40 -640 661 0
-661 641 40 0
-661 641 640 0
-642 662 0
-40 -641 662 0
-662 642 40 0
-662 642 641 0
-643 663 0
-40 -642 663 0
-663 643 40 0
-663 643 642 0
-644 664 0
-40 -643 664 0
-664 644 40 0
-664 644 643 0
-645 665 0
-41 665 0
-665 645 41 0
-646 666 0
-41 -645 666 0
-666 646 41 0
-666 646 645 0
-647 667 0
-41 -646 667 0
-667 647 41 0
-667 647 646 0
-648 668 0
-41 -647 668 0
-668 648 41 0
-668 648 647 0
-649 669 0
-41 -648 669 0
-669 649 41 0
-669 649 648 0
-650 670 0
-41 -649 670 0
-670 650 41 0
-670 650 649 0
-651 671 0
-41 -650 671 0
-671 651 41 0
-671 651 650 0
-652 672 0
-41 -651 672 0
-672 652 41 0
-672 652 651 0
-653 673 0
-41 -652 673 0
-673 653 41 0
-673 653 652 0
-654 674 0
-41 -653 674 0
-674 654 41 0
-674 654 653 0
-655 675 0
-41 -654 675 0
-675 655 41 0
-675 655 654 0
-656 676 0
-41 -655 676 0
-676 656 41 0
-676 656 655 0
-657 677 0
-41 -656 677 0
-677 657 41 0
-677 657 656 0
-658 678 0
-41 -657 678 0
-678 658 41 0
-678 658 657 0
-659 679 0
-41 -658 679 0
-679 659 41 0
-679 659 658 0
-660 680 0
-41 -659 680 0
-680 660 41 0
-680 660 659 0
-661 681 0
-41 -660 681 0
-681 661 41 0
-681 661 660 0
-662 682 0
-41 -661 682 0
-682 662 41 0
-682 662 661 0
-663 683 0
-41 -662 683 0
-683 663 41 0
-683 663 662 0
-664 684 0
-41 -663 684 0
-684 664 41 0
-684 664 663 0
-665 685 0
-42 685 0
-685 665 42 0
-666 686 0
-42 -665 686 0
-686 666 42 0
-686 666 665 0
-667 687 0
-42 -666 687 0
-687 667 42 0
-687 667 666 0
-668 688 0
-42 -667 688 0
-688 668 42 0
-688 668 667 0
-669 689 0
-42 -668 689 0
-689 669 42 0
-689 669 668 0
-670 690 0
-42 -669 690 0
-690 670 42 0
-690 670 669 0
-671 691 0
-42 -670 691 0
-691 671 42 0
-691 671 670 0
-672 692 0
-42 -671 692 0
-692 672 42 0
-692 672 671 0
-673 693 0
-42 -672 693 0
-693 673 42 0
-693 673 672 0
-674 694 0
-42 -673 694 0
-694 674 42 0
-694 674 673 0
-675 695 0
-42 -674 695 0
-695 675 42 0
-695 675 674 0
-676 696 0
-42 -675 696 0
-696 676 42 0
-696 676 675 0
-677 697 0
-42 -676 697 0
-697 677 42 0
-697 677 676 0
-678 698 0
-42 -677 698 0
-698 678 42 0
-698 678 677 0
-679 699 0
-42 -678 699 0
-699 679 42 0
-699 679 678 0
-680 700 0
-42 -679 700 0
-700 680 42 0
-700 680 679 0
-681 701 0
-42 -680 701 0
-701 681 42 0
-701 681 680 0
-682 702 0
-42 -681 702 0
-702 682 42 0
-702 682 681 0
-683 703 0
-42 -682 703 0
-703 683 42 0
-703 683 682 0
-684 704 0
-42 -683 704 0
-704 684 42 0
-704 684 683 0
-685 705 0
-43 705 0
-705 685 43 0
-686 706 0
-43 -685 706 0
-706 686 43 0
-706 686 685 0
-687 707 0
-43 -686 707 0
-707 687 43 0
-707 687 686 0
-688 708 0
-43 -687 708 0
-708 688 43 0
-708 688 687 0
-689 709 0
-43 -688 709 0
-709 689 43 0
-709 689 688 0
-690 710 0
-43 -689 710 0
-710 690 43 0
-710 690 689 0
-691 711 0
-43 -690 711 0
-711 691 43 0
-711 691 690 0
-692 712 0
-43 -691 712 0
-712 692 43 0
-712 692 691 0
-693 713 0
-43 -692 713 0
-713 693 43 0
-713 693 692 0
-694 714 0
-43 -693 714 0
-714 694 43 0
-714 694 693 0
-695 715 0
-43 -694 715 0
-715 695 43 0
-715 695 694 0
-696 716 0
-43 -695 716 0
-716 696 43 0
-716 696 695 0
-697 717 0
-43 -696 717 0
-717 697 43 0
-717 697 696 0
-698 718 0
-43 -697 718 0
-718 698 43 0
-718 698 697 0
-699 719 0
-43 -698 719 0
-719 699 43 0
-719 699 698 0
-700 720 0
-43 -699 720 0
-720 700 43 0
-720 700 699 0
-701 721 0
-43 -700 721 0
-721 701 43 0
-721 701 700 0
-702 722 0
-43 -701 722 0
-722 702 43 0
-722 702 701 0
-703 723 0
-43 -702 723 0
-723 703 43 0
-723 703 702 0
-704 724 0
-43 -703 724 0
-724 704 43 0
-724 704 703 0
-705 725 0
-44 725 0
-725 705 44 0
-706 726 0
-44 -705 726 0
-726 706 44 0
-726 706 705 0
-707 727 0
-44 -706 727 0
-727 707 44 0
-727 707 706 0
-708 728 0
-44 -707 728 0
-728 708 44 0
-728 708 707 0
-709 729 0
-44 -708 729 0
-729 709 44 0
-729 709 708 0
-710 730 0
-44 -709 730 0
-730 710 44 0
-730 710 709 0
-711 731 0
-44 -710 731 0
-731 711 44 0
-731 711 710 0
-712 732 0
-44 -711 732 0
-732 712 44 0
-732 712 711 0
-713 733 0
-44 -712 733 0
-733 713 44 0
-733 713 712 0
-714 734 0
-44 -713 734 0
-734 714 44 0
-734 714 713 0
-715 735 0
-44 -714 735 0
-735 715 44 0
-735 715 714 0
-716 736 0
-44 -715 736 0
-736 716 44 0
-736 716 715 0
-717 737 0
-44 -716 737 0
-737 717 44 0
-737 717 716 0
-718 738 0
-44 -717 738 0
-738 718 44 0
-738 718 717 0
-719 739 0
-44 -718 739 0
-739 719 44 0
-739 719 718 0
-720 740 0
-44 -719 740 0
-740 720 44 0
-740 720 719 0
-721 741 0
-44 -720 741 0
-741 721 44 0
-741 721 720 0
-722 742 0
-44 -721 742 0
-742 722 44 0
-742 722 721 0
-723 743 0
-44 -722 743 0
-743 723 44 0
-743 723 722 0
-724 744 0
-44 -723 744 0
-744 724 44 0
-744 724 723 0
-725 745 0
-45 745 0
-745 725 45 0
-726 746 0
-45 -725 746 0
-746 726 45 0
-746 726 725 0
-727 747 0
-45 -726 747 0
-747 727 45 0
-747 727 726 0
-728 748 0
-45 -727 748 0
-748 728 45 0
-748 728 727 0
-729 749 0
-45 -728 749 0
-749 729 45 0
-749 729 728 0
-730 750 0
-45 -729 750 0
-750 730 45 0
-750 730 729 0
-731 751 0
-45 -730 751 0
-751 731 45 0
-751 731 730 0
-732 752 0
-45 -731 752 0
-752 732 45 0
-752 732 731 0
-733 753 0
-45 -732 753 0
-753 733 45 0
-753 733 732 0
-734 754 0
-45 -733 754 0
-754 734 45 0
-754 734 733 0
-735 755 0
-45 -734 755 0
-755 735 45 0
-755 735 734 0
-736 756 0
-45 -735 756 0
-756 736 45 0
-756 736 735 0
-737 757 0
-45 -736 757 0
-757 737 45 0
-757 737 736 0
-738 758 0
-45 -737 758 0
-758 738 45 0
-758 738 737 0
-739 759 0
-45 -738 759 0
-759 739 45 0
-759 739 738 0
-740 760 0
-45 -739 760 0
-760 740 45 0
-760 740 739 0
-741 761 0
-45 -740 761 0
-761 741 45 0
-761 741 740 0
-742 762 0
-45 -741 762 0
-762 742 45 0
-762 742 741 0
-743 763 0
-45 -742 763 0
-763 743 45 0
-763 743 742 0
-744 764 0
-45 -743 764 0
-764 744 45 0
-764 744 743 0
-745 765 0
-46 765 0
-765 745 46 0
-746 766 0
-46 -745 766 0
-766 746 46 0
-766 746 745 0
-747 767 0
-46 -746 767 0
-767 747 46 0
-767 747 746 0
-748 768 0
-46 -747 768 0
-768 748 46 0
-768 748 747 0
-749 769 0
-46 -748 769 0
-769 749 46 0
-769 749 748 0
-750 770 0
-46 -749 770 0
-770 750 46 0
-770 750 749 0
-751 771 0
-46 -750 771 0
-771 751 46 0
-771 751 750 0
-752 772 0
-46 -751 772 0
-772 752 46 0
-772 752 751 0
-753 773 0
-46 -752 773 0
-773 753 46 0
-773 753 752 0
-754 774 0
-46 -753 774 0
-774 754 46 0
-774 754 753 0
-755 775 0
-46 -754 775 0
-775 755 46 0
-775 755 754 0
-756 776 0
-46 -755 776 0
-776 756 46 0
-776 756 755 0
-757 777 0
-46 -756 777 0
-777 757 46 0
-777 757 756 0
-758 778 0
-46 -757 778 0
-778 758 46 0
-778 758 757 0
-759 779 0
-46 -758 779 0
-779 759 46 0
-779 759 758 0
-760 780 0
-46 -759 780 0
-780 760 46 0
-780 760 759 0
-761 781 0
-46 -760 781 0
-781 761 46 0
-781 761 760 0
-762 782 0
-46 -761 782 0
-782 762 46 0
-782 762 761 0
-763 783 0
-46 -762 783 0
-783 763 46 0
-783 763 762 0
-764 784 0
-46 -763 784 0
-784 764 46 0
-784 764 763 0
-765 785 0
-47 785 0
-785 765 47 0
-766 786 0
-47 -765 786 0
-786 766 47 0
-786 766 765 0
-767 787 0
-47 -766 787 0
-787 767 47 0
-787 767 766 0
-768 788 0
-47 -767 788 0
-788 768 47 0
-788 768 767 0
-769 789 0
-47 -768 789 0
-789 769 47 0
-789 769 768 0
-770 790 0
-47 -769 790 0
-790 770 47 0
-790 770 769 0
-771 791 0
-47 -770 791 0
-791 771 47 0
-791 771 770 0
-772 792 0
-47 -771 792 0
-792 772 47 0
-792 772 771 0
-773 793 0
-47 -772 793 0
-793 773 47 0
-793 773 772 0
-774 794 0
-47 -773 794 0
-794 774 47 0
-794 774 773 0
-775 795 0
-47 -774 795 0
-795 775 47 0
-795 775 774 0
-776 796 0
-47 -775 796 0
-796 776 47 0
-796 776 775 0
-777 797 0
-47 -776 797 0
-797 777 47 0
-797 777 776 0
-778 798 0
-47 -777 798 0
-798 778 47 0
-798 778 777 0
-779 799 0
-47 -778 799 0
-799 779 47 0
-799 779 778 0
-780 800 0
-47 -779 800 0
-800 780 47 0
-800 780 779 0
-781 801 0
-47 -780 801 0
-801 781 47 0
-801 781 780 0
-782 802 0
-47 -781 802 0
-802 782 47 0
-802 782 781 0
-783 803 0
-47 -782 803 0
-803 783 47 0
-803 783 782 0
-784 804 0
-47 -783 804 0
-804 784 47 0
-804 784 783 0
-785 805 0
-48 805 0
-805 785 48 0
-786 806 0
-48 -785 806 0
-806 786 48 0
-806 786 785 0
-787 807 0
-48 -786 807 0
-807 787 48 0
-807 787 786 0
-788 808 0
-48 -787 808 0
-808 788 48 0
-808 788 787 0
-789 809 0
-48 -788 809 0
-809 789 48 0
-809 789 788 0
-790 810 0
-48 -789 810 0
-810 790 48 0
-810 790 789 0
-791 811 0
-48 -790 811 0
-811 791 48 0
-811 791 790 0
-792 812 0
-48 -791 812 0
-812 792 48 0
-812 792 791 0
-793 813 0
-48 -792 813 0
-813 793 48 0
-813 793 792 0
-794 814 0
-48 -793 814 0
-814 794 48 0
-814 794 793 0
-795 815 0
-48 -794 815 0
-815 795 48 0
-815 795 794 0
-796 816 0
-48 -795 816 0
-816 796 48 0
-816 796 795 0
-797 817 0
-48 -796 817 0
-817 797 48 0
-817 797 796 0
-798 818 0
-48 -797 818 0
-818 798 48 0
-818 798 797 0
-799 819 0
-48 -798 819 0
-819 799 48 0
-819 799 798 0
-800 820 0
-48 -799 820 0
-820 800 48 0
-820 800 799 0
-801 821 0
-48 -800 821 0
-821 801 48 0
-821 801 800 0
-802 822 0
-48 -801 822 0
-822 802 48 0
-822 802 801 0
-803 823 0
-48 -802 823 0
-823 803 48 0
-823 803 802 0
-804 824 0
-48 -803 824 0
-824 804 48 0
-824 804 803 0
-805 825 0
-49 825 0
-825 805 49 0
-806 826 0
-49 -805 826 0
-826 806 49 0
-826 806 805 0
-807 827 0
-49 -806 827 0
-827 807 49 0
-827 807 806 0
-808 828 0
-49 -807 828 0
-828 808 49 0
-828 808 807 0
-809 829 0
-49 -808 829 0
-829 809 49 0
-829 809 808 0
-810 830 0
-49 -809 830 0
-830 810 49 0
-830 810 809 0
-811 831 0
-49 -810 831 0
-831 811 49 0
-831 811 810 0
-812 832 0
-49 -811 832 0
-832 812 49 0
-832 812 811 0
-813 833 0
-49 -812 833 0
-833 813 49 0
-833 813 812 0
-814 834 0
-49 -813 834 0
-834 814 49 0
-834 814 813 0
-815 835 0
-49 -814 835 0
-835 815 49 0
-835 815 814 0
-816 836 0
-49 -815 836 0
-836 816 49 0
-836 816 815 0
-817 837 0
-49 -816 837 0
-837 817 49 0
-837 817 816 0
-818 838 0
-49 -817 838 0
-838 818 49 0
-838 818 817 0
-819 839 0
-49 -818 839 0
-839 819 49 0
-839 819 818 0
-820 840 0
-49 -819 840 0
-840 820 49 0
-840 820 819 0
-821 841 0
-49 -820 841 0
-841 821 49 0
-841 821 820 0
-822 842 0
-49 -821 842 0
-842 822 49 0
-842 822 821 0
-823 843 0
-49 -822 843 0
-843 823 49 0
-843 823 822 0
-824 844 0
-49 -823 844 0
-844 824 49 0
-844 824 823 0
-825 845 0
-50 845 0
-845 825 50 0
-826 846 0
-50 -825 846 0
-846 826 50 0
-846 826 825 0
-827 847 0
-50 -826 847 0
-847 827 50 0
-847 827 826 0
-828 848 0
-50 -827 848 0
-848 828 50 0
-848 828 827 0
-829 849 0
-50 -828 849 0
-849 829 50 0
-849 829 828 0
-830 850 0
-50 -829 850 0
-850 830 50 0
-850 830 829 0
-831 851 0
-50 -830 851 0
-851 831 50 0
-851 831 830 0
-832 852 0
-50 -831 852 0
-852 832 50 0
-852 832 831 0
-833 853 0
-50 -832 853 0
-853 833 50 0
-853 833 832 0
-834 854 0
-50 -833 854 0
-854 834 50 0
-854 834 833 0
-835 855 0
-50 -834 855 0
-855 835 50 0
-855 835 834 0
-836 856 0
-50 -835 856 0
-856 836 50 0
-856 836 835 0
-837 857 0
-50 -836 857 0
-857 837 50 0
-857 837 836 0
-838 858 0
-50 -837 858 0
-858 838 50 0
-858 838 837 0
-839 859 0
-50 -838 859 0
-859 839 50 0
-859 839 838 0
-840 860 0
-50 -839 860 0
-860 840 50 0
-860 840 839 0
-841 861 0
-50 -840 861 0
-861 841 50 0
-861 841 840 0
-842 862 0
-50 -841 862 0
-862 842 50 0
-862 842 841 0
-843 863 0
-50 -842 863 0
-863 843 50 0
-863 843 842 0
-844 864 0
-50 -843 864 0
-864 844 50 0
-864 844 843 0
-845 865 0
-51 865 0
-865 845 51 0
-846 866 0
-51 -845 866 0
-866 846 51 0
-866 846 845 0
-847 867 0
-51 -846 867 0
-867 847 51 0
-867 847 846 0
-848 868 0
-51 -847 868 0
-868 848 51 0
-868 848 847 0
-849 869 0
-51 -848 869 0
-869 849 51 0
-869 849 848 0
-850 870 0
-51 -849 870 0
-870 850 51 0
-870 850 849 0
-851 871 0
-51 -850 871 0
-871 851 51 0
-871 851 850 0
-852 872 0
-51 -851 872 0
-872 852 51 0
-872 852 851 0
-853 873 0
-51 -852 873 0
-873 853 51 0
-873 853 852 0
-854 874 0
-51 -853 874 0
-874 854 51 0
-874 854 853 0
-855 875 0
-51 -854 875 0
-875 855 51 0
-875 855 854 0
-856 876 0
-51 -855 876 0
-876 856 51 0
-876 856 855 0
-857 877 0
-51 -856 877 0
-877 857 51 0
-877 857 856 0
-858 878 0
-51 -857 878 0
-878 858 51 0
-878 858 857 0
-859 879 0
-51 -858 879 0
-879 859 51 0
-879 859 858 0
-860 880 0
-51 -859 880 0
-880 860 51 0
-880 860 859 0
-861 881 0
-51 -860 881 0
-881 861 51 0
-881 861 860 0
-862 882 0
-51 -861 882 0
-882 862 51 0
-882 862 861 0
-863 883 0
-51 -862 883 0
-883 863 51 0
-883 863 862 0
-864 884 0
-51 -863 884 0
-884 864 51 0
-884 864 863 0
-865 885 0
-52 885 0
-885 865 52 0
-866 886 0
-52 -865 886 0
-886 866 52 0
-886 866 865 0
-867 887 0
-52 -866 887 0
-887 867 52 0
-887 867 866 0
-868 888 0
-52 -867 888 0
-888 868 52 0
-888 868 867 0
-869 889 0
-52 -868 889 0
-889 869 52 0
-889 869 868 0
-870 890 0
-52 -869 890 0
-890 870 52 0
-890 870 869 0
-871 891 0
-52 -870 891 0
-891 871 52 0
-891 871 870 0
-872 892 0
-52 -871 892 0
-892 872 52 0
-892 872 871 0
-873 893 0
-52 -872 893 0
-893 873 52 0
-893 873 872 0
-874 894 0
-52 -873 894 0
-894 874 52 0
-894 874 873 0
-875 895 0
-52 -874 895 0
-895 875 52 0
-895 875 874 0
-876 896 0
-52 -875 896 0
-896 876 52 0
-896 876 875 0
-877 897 0
-52 -876 897 0
-897 877 52 0
-897 877 876 0
-878 898 0
-52 -877 898 0
-898 878 52 0
-898 878 877 0
-879 899 0
-52 -878 899 0
-899 879 52 0
-899 879 878 0
-880 900 0
-52 -879 900 0
-900 880 52 0
-900 880 879 0
-881 901 0
-52 -880 901 0
-901 881 52 0
-901 881 880 0
-882 902 0
-52 -881 902 0
-902 882 52 0
-902 882 881 0
-883 903 0
-52 -882 903 0
-903 883 52 0
-903 883 882 0
-884 904 0
-52 -883 904 0
-904 884 52 0
-904 884 883 0
-885 905 0
-53 905 0
-905 885 53 0
-886 906 0
-53 -885 906 0
-906 886 53 0
-906 886 885 0
-887 907 0
-53 -886 907 0
-907 887 53 0
-907 887 886 0
-888 908 0
-53 -887 908 0
-908 888 53 0
-908 888 887 0
-889 909 0
-53 -888 909 0
-909 889 53 0
-909 889 888 0
-890 910 0
-53 -889 910 0
-910 890 53 0
-910 890 889 0
-891 911 0
-53 -890 911 0
-911 891 53 0
-911 891 890 0
-892 912 0
-53 -891 912 0
-912 892 53 0
-912 892 891 0
-893 913 0
-53 -892 913 0
-913 893 53 0
-913 893 892 0
-894 914 0
-53 -893 914 0
-914 894 53 0
-914 894 893 0
-895 915 0
-53 -894 915 0
-915 895 53 0
-915 895 894 0
-896 916 0
-53 -895 916 0
-916 896 53 0
-916 896 895 0
-897 917 0
-53 -896 917 0
-917 897 53 0
-917 897 896 0
-898 918 0
-53 -897 918 0
-918 898 53 0
-918 898 897 0
-899 919 0
-53 -898 919 0
-919 899 53 0
-919 899 898 0
-900 920 0
-53 -899 920 0
-920 900 53 0
-920 900 899 0
-901 921 0
-53 -900 921 0
-921 901 53 0
-921 901 900 0
-902 922 0
-53 -901 922 0
-922 902 53 0
-922 902 901 0
-903 923 0
-53 -902 923 0
-923 903 53 0
-923 903 902 0
-904 924 0
-53 -903 924 0
-924 904 53 0
-924 904 903 0
-905 925 0
-54 925 0
-925 905 54 0
-906 926 0
-54 -905 926 0
-926 906 54 0
-926 906 905 0
-907 927 0
-54 -906 927 0
-927 907 54 0
-927 907 906 0
-908 928 0
-54 -907 928 0
-928 908 54 0
-928 908 907 0
-909 929 0
-54 -908 929 0
-929 909 54 0
-929 909 908 0
-910 930 0
-54 -909 930 0
-930 910 54 0
-930 910 909 0
-911 931 0
-54 -910 931 0
-931 911 54 0
-931 911 910 0
-912 932 0
-54 -911 932 0
-932 912 54 0
-932 912 911 0
-913 933 0
-54 -912 933 0
-933 913 54 0
-933 913 912 0
-914 934 0
-54 -913 934 0
-934 914 54 0
-934 914 913 0
-915 935 0
-54 -914 935 0
-935 915 54 0
-935 915 914 0
-916 936 0
-54 -915 936 0
-936 916 54 0
-936 916 915 0
-917 937 0
-54 -916 937 0
-937 917 54 0
-937 917 916 0
-918 938 0
-54 -917 938 0
-938 918 54 0
-938 918 917 0
-919 939 0
-54 -918 939 0
-939 919 54 0
-939 919 918 0
-920 940 0
-54 -919 940 0
-940 920 54 0
-940 920 919 0
-921 941 0
-54 -920 941 0
-941 921 54 0
-941 921 920 0
-922 942 0
-54 -921 942 0
-942 922 54 0
-942 922 921 0
-923 943 0
-54 -922 943 0
-943 923 54 0
-943 923 922 0
-924 944 0
-54 -923 944 0
-944 924 54 0
-944 924 923 0
944 0
-1 -3 -5 -19 -21 0
-1 -3 -5 -19 -23 0
-1 -3 -5 -19 -37 0
-1 -3 -5 -19 -39 0
-1 -3 -5 -19 -41 0
-1 -3 -5 -21 -23 0
-1 -3 -5 -21 -37 0
-1 -3 -5 -21 -39 0
-1 -3 -5 -21 -41 0
-1 -3 -5 -23 -37 0
-1 -3 -5 -23 -39 0
-1 -3 -5 -23 -41 0
-1 -3 -5 -37 -39 0
-1 -3 -5 -37 -41 0
-1 -3 -5 -39 -41 0
-1 -3 -19 -21 -23 0
-1 -3 -19 -21 -37 0
-1 -3 -19 -21 -39 0
-1 -3 -19 -21 -41 0
-1 -3 -19 -23 -37 0
-1 -3 -19 -23 -39 0
-1 -3 -19 -23 -41 0
-1 -3 -19 -37 -39 0
-1 -3 -19 -37 -41 0
-1 -3 -19 -39 -41 0
-1 -3 -21 -23 -37 0
-1 -3 -21 -23 -39 0
-1 -3 -21 -23 -41 0
-1 -3 -21 -37 -39 0
-1 -3 -21 -37 -41 0
-1 -3 -21 -39 -41 0
-1 -3 -23 -37 -39 0
-1 -3 -23 -37 -41 0
-1 -3 -23 -39 -41 0
-1 -3 -37 -39 -41 0
-1 -5 -19 -21 -23 0
-1 -5 -19 -21 -37 0
-1 -5 -19 -21 -39 0
-1 -5 -19 -21 -41 0
-1 -5 -19 -23 -37 0
-1 -5 -19 -23 -39 0
-1 -5 -19 -23 -41 0
-1 -5 -19 -37 -39 0
-1 -5 -19 -37 -41 0
-1 -5 -19 -39 -41 0
-1 -5 -21 -23 -37 0
-1 -5 -21 -23 -39 0
-1 -5 -21 -23 -41 0
-1 -5 -21 -37 -39 0
-1 -5 -21 -37 -41 0
-1 -5 -21 -39 -41 0
-1 -5 -23 -37 -39 0
-1 -5 -23 -37 -41 0
-1 -5 -23 -39 -41 0
-1 -5 -37 -39 -41 0
-1 -19 -21 -23 -37 0
-1 -19 -21 -23 -39 0
-1 -19 -21 -23 -41 0
-1 -19 -21 -37 -39 0
-1 -19 -21 -37 -41 0
-1 -19 -21 -39 -41 0
-1 -19 -23 -37 -39 0
-1 -19 -23 -37 -41 0
-1 -19 -23 -39 -41 0
-1 -19 -37 -39 -41 0
-1 -21 -23 -37 -39 0
-1 -21 -23 -37 -41 0
-1 -21 -23 -39 -41 0
-1 -21 -37 -39 -41 0
-1 -23 -37 -39 -41 0
-3 -5 -19 -21 -23 0
-3 -5 -19 -21 -37 0
-3 -5 -19 -21 -39 0
-3 -5 -19 -21 -41 0
-3 -5 -19 -23 -37 0
-3 -5 -19 -23 -39 0
-3 -5 -19 -23 -41 0
-3 -5 -19 -37 -39 0
-3 -5 -19 -37 -41 0
-3 -5 -19 -39 -41 0
-3 -5 -21 -23 -37 0
-3 -5 -21 -23 -39 0
-3 -5 -21 -23 -41 0
-3 -5 -21 -37 -39 0
-3 -5 -21 -37 -41 0
-3 -5 -21 -39 -41 0
-3 -5 -23 -37 -39 0
-3 -5 -23 -37 -41 0
-3 -5 -23 -39 -41 0
-3 -5 -37 -39 -41 0
-3 -19 -21 -23 -37 0
-3 -19 -21 -23 -39 0
-3 -19 -21 -23 -41 0
-3 -19 -21 -37 -39 0
-3 -19 -21 -37 -41 0
-3 -19 -21 -39 -41 0
-3 -19 -23 -37 -39 0
-3 -19 -23 -37 -41 0
-3 -19 -23 -39 -41 0
-3 -19 -37 -39 -41 0
-3 -21 -23 -37 -39 0
-3 -21 -23 -37 -41 0
-3 -21 -23 -39 -41 0
-3 -21 -37 -39 -41 0
-3 -23 -37 -39 -41 0
-5 -19 -21 -23 -37 0
-5 -19 -21 -23 -39 0
-5 -19 -21 -23 -41 0
-5 -19 -21 -37 -39 0
-5 -19 -21 -37 -41 0
-5 -19 -21 -39 -41 0
-5 -19 -23 -37 -39 0
-5 -19 -23 -37 -41 0
-5 -19 -23 -39 -41 0
-5 -19 -37 -39 -41 0
-5 -21 -23 -37 -39 0
-5 -21 -23 -37 -41 0
-5 -21 -23 -39 -41 0
-5 -21 -37 -39 -41 0
-5 -23 -37 -39 -41 0
-19 -21 -23 -37 -39 0
-19 -21 -23 -37 -41 0
-19 -21 -23 -39 -41 0
-19 -21 -37 -39 -41 0
-19 -23 -37 -39 -41 0
-21 -23 -37 -39 -41 0
-2 -4 -6 -20 -22 0
-2 -4 -6 -20 -24 0
-2 -4 -6 -20 -38 0
-2 -4 -6 -20 -40 0
-2 -4 -6 -20 -42 0
-2 -4 -6 -22 -24 0
-2 -4 -6 -22 -38 0
-2 -4 -6 -22 -40 0
-2 -4 -6 -22 -42 0
-2 -4 -6 -24 -38 0
-2 -4 -6 -24 -40 0
-2 -4 -6 -24 -42 0
-2 -4 -6 -38 -40 0
-2 -4 -6 -38 -42 0
-2 -4 -6 -40 -42 0
-2 -4 -20 -22 -24 0
-2 -4 -20 -22 -38 0
-2 -4 -20 -22 -40 0
-2 -4 -20 -22 -42 0
-2 -4 -20 -24 -38 0
-2 -4 -20 -24 -40 0
-2 -4 -20 -24 -42 0
-2 -4 -20 -38 -40 0
-2 -4 -20 -38 -42 0
-2 -4 -20 -40 -42 0
-2 -4 -22 -24 -38 0
-2 -4 -22 -24 -40 0
-2 -4 -22 -24 -42 0
-2 -4 -22 -38 -40 0
-2 -4 -22 -38 -42 0
-2 -4 -22 -40 -42 0
-2 -4 -24 -38 -40 0
-2 -4 -24 -38 -42 0
-2 -4 -24 -40 -42 0
-2 -4 -38 -40 -42 0
-2 -6 -20 -22 -24 0
-2 -6 -20 -22 -38 0
-2 -6 -20 -22 -40 0
-2 -6 -20 -22 -42 0
-2 -6 -20 -24 -38 0
-2 -6 -20 -24 -40 0
-2 -6 -20 -24 -42 0
-2 -6 -20 -38 -40 0
-2 -6 -20 -38 -42 0
-2 -6 -20 -40 -42 0
-2 -6 -22 -24 -38 0
-2 -6 -22 -24 -40 0
-2 -6 -22 -24 -42 0
-2 -6 -22 -38 -40 0
-2 -6 -22 -38 -42 0
-2 -6 -22 -40 -42 0
-2 -6 -24 -38 -40 0
-2 -6 -24 -38 -42 0
-2 -6 -24 -40 -42 0
-2 -6 -38 -40 -42 0
-2 -20 -22 -24 -38 0
-2 -20 -22 -24 -40 0
-2 -20 -22 -24 -42 0
-2 -20 -22 -38 -40 0
-2 -20 -22 -38 -42 0
-2 -20 -22 -40 -42 0
-2 -20 -24 -38 -40 0
-2 -20 -24 -38 -42 0
-2 -20 -24 -40 -42 0
-2 -20 -38 -40 -42 0
-2 -22 -24 -38 -40 0
-2 -22 -24 -38 -42 0
-2 -22 -24 -40 -42 0
-2 -22 -38 -40 -42 0
-2 -24 -38 -40 -42 0
-4 -6 -20 -22 -24 0
-4 -6 -20 -22 -38 0
-4 -6 -20 -22 -40 0
-4 -6 -20 -22 -42 0
-4 -6 -20 -24 -38 0
-4 -6 -20 -24 -40 0
-4 -6 -20 -24 -42 0
-4 -6 -20 -38 -40 0
-4 -6 -20 -38 -42 0
-4 -6 -20 -40 -42 0
-4 -6 -22 -24 -38 0
-4 -6 -22 -24 -40 0
-4 -6 -22 -24 -42 0
-4 -6 -22 -38 -40 0
-4 -6 -22 -38 -42 0
-4 -6 -22 -40 -42 0
-4 -6 -24 -38 -40 0
-4 -6 -24 -38 -42 0
-4 -6 -24 -40 -42 0
-4 -6 -38 -40 -42 0
-4 -20 -22 -24 -38 0
-4 -20 -22 -24 -40 0
-4 -20 -22 -24 -42 0
-4 -20 -22 -38 -40 0
-4 -20 -22 -38 -42 0
-4 -20 -22 -40 -42 0
-4 -20 -24 -38 -40 0
-4 -20 -24 -38 -42 0
-4 -20 -24 -40 -42 0
-4 -20 -38 -40 -42 0
-4 -22 -24 -38 -40 0
-4 -22 -24 -38 -42 0
-4 -22 -24 -40 -42 0
-4 -22 -38 -40 -42 0
-4 -24 -38 -40 -42 0
-6 -20 -22 -24 -38 0
-6 -20 -22 -24 -40 0
-6 -20 -22 -24 -42 0
-6 -20 -22 -38 -40 0
-6 -20 -22 -38 -42 0
-6 -20 -22 -40 -42 0
-6 -20 -24 -38 -40 0
-6 -20 -24 -38 -42 0
-6 -20 -24 -40 -42 0
-6 -20 -38 -40 -42 0
-6 -22 -24 -38 -40 0
-6 -22 -24 -38 -42 0
-6 -22 -24 -40 -42 0
-6 -22 -38 -40 -42 0
-6 -24 -38 -40 -42 0
-20 -22 -24 -38 -40 0
-20 -22 -24 -38 -42 0
-20 -22 -24 -40 -42 0
-20 -22 -38 -40 -42 0
-20 -24 -38 -40 -42 0
-22 -24 -38 -40 -42 0
-7 -9 -11 -25 -27 0
-7 -9 -11 -25 -29 0
-7 -9 -11 -25 -43 0
-7 -9 -11 -25 -45 0
-7 -9 -11 -25 -47 0
-7 -9 -11 -27 -29 0
-7 -9 -11 -27 -43 0
-7 -9 -11 -27 -45 0
-7 -9 -11 -27 -47 0
-7 -9 -11 -29 -43 0
-7 -9 -11 -29 -45 0
-7 -9 -11 -29 -47 0
-7 -9 -11 -43 -45 0
-7 -9 -11 -43 -47 0
-7 -9 -11 -45 -47 0
-7 -9 -25 -27 -29 0
-7 -9 -25 -27 -43 0
-7 -9 -25 -27 -45 0
-7 -9 -25 -27 -47 0
-7 -9 -25 -29 -43 0
-7 -9 -25 -29 -45 0
-7 -9 -25 -29 -47 0
-7 -9 -25 -43 -45 0
-7 -9 -25 -43 -47 0
-7 -9 -25 -45 -47 0
-7 -9 -27 -29 -43 0
-7 -9 -27 -29 -45 0
-7 -9 -27 -29 -47 0
-7 -9 -27 -43 -45 0
-7 -9 -27 -43 -47 0
-7 -9 -27 -45 -47 0
-7 -9 -29 -43 -45 0
-7 -9 -29 -43 -47 0
-7 -9 -29 -45 -47 0
-7 -9 -43 -45 -47 0
-7 -11 -25 -27 -29 0
-7 -11 -25 -27 -43 0
-7 -11 -25 -27 -45 0
-7 -11 -25 -27 -47 0
-7 -11 -25 -29 -43 0
-7 -11 -25 -29 -45 0
-7 -11 -25 -29 -47 0
-7 -11 -25 -43 -45 0
-7 -11 -25 -43 -47 0
-7 -11 -25 -45 -47 0
-7 -11 -27 -29 -43 0
-7 -11 -27 -29 -45 0
-7 -11 -27 -29 -47 0
-7 -11 -27 -43 -45 0
-7 -11 -27 -43 -47 0
-7 -11 -27 -45 -47 0
-7 -11 -29 -43 -45 0
-7 -11 -29 -43 -47 0
-7 -11 -29 -45 -47 0
-7 -11 -43 -45 -47 0
-7 -25 -27 -29 -43 0
-7 -25 -27 -29 -45 0
-7 -25 -27 -29 -47 0
-7 -25 -27 -43 -45 0
-7 -25 -27 -43 -47 0
-7 -25 -27 -45 -47 0
-7 -25 -29 -43 -45 0
-7 -25 -29 -43 -47 0
-7 -25 -29 -45 -47 0
-7 -25 -43 -45 -47 0
-7 -27 -29 -43 -45 0
-7 -27 -29 -43 -47 0
-7 -27 -29 -45 -47 0
-7 -27 -43 -45 -47 0
-7 -29 -43 -45 -47 0
-9 -11 -25 -27 -29 0
-9 -11 -25 -27 -43 0
-9 -11 -25 -27 -45 0
-9 -11 -25 -27 -47 0
-9 -11 -25 -29 -43 0
-9 -11 -25 -29 -45 0
-9 -11 -25 -29 -47 0
-9 -11 -25 -43 -45 0
-9 -11 -25 -43 -47 0
-9 -11 -25 -45 -47 0
-9 -11 -27 -29 -43 0
-9 -11 -27 -29 -45 0
-9 -11 -27 -29 -47 0
-9 -11 -27 -43 -45 0
-9 -11 -27 -43 -47 0
-9 -11 -27 -45 -47 0
-9 -11 -29 -43 -45 0
-9 -11 -29 -43 -47 0
-9 -11 -29 -45 -47 0
-9 -11 -43 -45 -47 0
-9 -25 -27 -29 -43 0
-9 -25 -27 -29 -45 0
-9 -25 -27 -29 -47 0
-9 -25 -27 -43 -45 0
-9 -25 -27 -43 -47 0
-9 -25 -27 -45 -47 0
-9 -25 -29 -43 -45 0
-9 -25 -29 -43 -47 0
-9 -25 -29 -45 -47 0
-9 -25 -43 -45 -47 0
-9 -27 -29 -43 -45 0
-9 -27 -29 -43 -47 0
-9 -27 -29 -45 -47 0
-9 -27 -43 -45 -47 0
-9 -29 -43 -45 -47 0
-11 -25 -27 -29 -43 0
-11 -25 -27 -29 -45 0
-11 -25 -27 -29 -47 0
-11 -25 -27 -43 -45 0
-11 -25 -27 -43 -47 0
-11 -25 -27 -45 -47 0
-11 -25 -29 -43 -45 0
-11 -25 -29 -43 -47 0
-11 -25 -29 -45 -47 0
-11 -25 -43 -45 -47 0
-11 -27 -29 -43 -45 0
-11 -27 -29 -43 -47 0
-11 -27 -29 -45 -47 0
-11 -27 -43 -45 -47 0
-11 -29 -43 -45 -47 0
-25 -27 -29 -43 -45 0
-25 -27 -29 -43 -47 0
-25 -27 -29 -45 -47 0
-25 -27 -43 -45 -47 0
-25 -29 -43 -45 -47 0
-27 -29 -43 -45 -47 0
-8 -10 -12 -26 -28 0
-8 -10 -12 -26 -30 0
-8 -10 -12 -26 -44 0
-8 -10 -12 -26 -46 0
-8 -10 -12 -26 -48 0
-8 -10 -12 -28 -30 0
-8 -10 -12 -28 -44 0
-8 -10 -12 -28 -46 0
-8 -10 -12 -28 -48 0
-8 -10 -12 -30 -44 0
-8 -10 -12 -30 -46 0
-8 -10 -12 -30 -48 0
-8 -10 -12 -44 -46 0
-8 -10 -12 -44 -48 0
-8 -10 -12 -46 -48 0
-8 -10 -26 -28 -30 0
-8 -10 -26 -28 -44 0
-8 -10 -26 -28 -46 0
-8 -10 -26 -28 -48 0
-8 -10 -26 -30 -44 0
-8 -10 -26 -30 -46 0
-8 -10 -26 -30 -48 0
-8 -10 -26 -44 -46 0
-8 -10 -26 -44 -48 0
-8 -10 -26 -46 -48 0
-8 -10 -28 -30 -44 0
-8 -10 -28 -30 -46 0
-8 -10 -28 -30 -48 0
-8 -10 -28 -44 -46 0
-8 -10 -28 -44 -48 0
-8 -10 -28 -46 -48 0
-8 -10 -30 -44 -46 0
-8 -10 -30 -44 -48 0
-8 -10 -30 -46 -48 0
-8 -10 -44 -46 -48 0
-8 -12 -26 -28 -30 0
-8 -12 -26 -28 -44 0
-8 -12 -26 -28 -46 0
-8 -12 -26 -28 -48 0
-8 -12 -26 -30 -44 0
-8 -12 -26 -30 -46 0
-8 -12 -26 -30 -48 0
-8 -12 -26 -44 -46 0
-8 -12 -26 -44 -48 0
-8 -12 -26 -46 -48 0
-8 -12 -28 -30 -44 0
-8 -12 -28 -30 -46 0
-8 -12 -28 -30 -48 0
-8 -12 -28 -44 -46 0
-8 -12 -28 -44 -48 0
-8 -12 -28 -46 -48 0
-8 -12 -30 -44 -46 0
-8 -12 -30 -44 -48 0
-8 -12 -30 -46 -48 0
-8 -12 -44 -46 -48 0
-8 -26 -28 -30 -44 0
-8 -26 -28 -30 -46 0
-8 -26 -28 -30 -48 0
-8 -26 -28 -44 -46 0
-8 -26 -28 -44 -48 0
-8 -26 -28 -46 -48 0
-8 -26 -30 -44 -46 0
-8 -26 -30 -44 -48 0
-8 -26 -30 -46 -48 0
-8 -26 -44 -46 -48 0
-8 -28 -30 -44 -46 0
-8 -28 -30 -44 -48 0
-8 -28 -30 -46 -48 0
-8 -28 -44 -46 -48 0
-8 -30 -44 -46 -48 0
-10 -12 -26 -28 -30 0
-10 -12 -26 -28 -44 0
-10 -12 -26 -28 -46 0
-10 -12 -26 -28 -48 0
-10 -12 -26 -30 -44 0
-10 -12 -26 -30 -46 0
-10 -12 -26 -30 -48 0
-10 -12 -26 -44 -46 0
-10 -12 -26 -44 -48 0
-10 -12 -26 -46 -48 0
-10 -12 -28 -30 -44 0
-10 -12 -28 -30 -46 0
-10 -12 -28 -30 -48 0
-10 -12 -28 -44 -46 0
-10 -12 -28 -44 -48 0
-10 -12 -28 -46 -48 0
-10 -12 -30 -44 -46 0
-10 -12 -30 -44 -48 0
-10 -12 -30 -46 -48 0
-10 -12 -44 -46 -48 0
-10 -26 -28 -30 -44 0
-10 -26 -28 -30 -46 0
-10 -26 -28 -30 -48 0
-10 -26 -28 -44 -46 0
-10 -26 -28 -44 -48 0
-10 -26 -28 -46 -48 0
-10 -26 -30 -44 -46 0
-10 -26 -30 -44 -48 0
-10 -26 -30 -46 -48 0
-10 -26 -44 -46 -48 0
-10 -28 -30 -44 -46 0
-10 -28 -30 -44 -48 0
-10 -28 -30 -46 -48 0
-10 -28 -44 -46 -48 0
-10 -30 -44 -46 -48 0
-12 -26 -28 -30 -44 0
-12 -26 -28 -30 -46 0
-12 -26 -28 -30 -48 0
-12 -26 -28 -44 -46 0
-12 -26 -28 -44 -48 0
-12 -26 -28 -46 -48 0
-12 -26 -30 -44 -46 0
-12 -26 -30 -44 -48 0
-12 -26 -30 -46 -48 0
-12 -26 -44 -46 -48 0
-12 -28 -30 -44 -46 0
-12 -28 -30 -44 -48 0
-12 -28 -30 -46 -48 0
-12 -28 -44 -46 -48 0
-12 -30 -44 -46 -48 0
-26 -28 -30 -44 -46 0
-26 -28 -30 -44 -48 0
-26 -28 -30 -46 -48 0
-26 -28 -44 -46 -48 0
-26 -30 -44 -46 -48 0
-28 -30 -44 -46 -48 0
-13 -15 -17 -31 -33 0
-13 -15 -17 -31 -35 0
-13 -15 -17 -31 -49 0
-13 -15 -17 -31 -51 0
-13 -15 -17 -31 -53 0
-13 -15 -17 -33 -35 0
-13 -15 -17 -33 -49 0
-13 -15 -17 -33 -51 0
-13 -15 -17 -33 -53 0
-13 -15 -17 -35 -49 0
-13 -15 -17 -35 -51 0
-13 -15 -17 -35 -53 0
-13 -15 -17 -49 -51 0
-13 -15 -17 -49 -53 0
-13 -15 -17 -51 -53 0
-13 -15 -31 -33 -35 0
-13 -15 -31 -33 -49 0
-13 -15 -31 -33 -51 0
-13 -15 -31 -33 -53 0
-13 -15 -31 -35 -49 0
-13 -15 -31 -35 -51 0
-13 -15 -31 -35 -53 0
-13 -15 -31 -49 -51 0
-13 -15 -31 -49 -53 0
-13 -15 -31 -51 -53 0
-13 -15 -33 -35 -49 0
-13 -15 -33 -35 -51 0
-13 -15 -33 -35 -53 0
-13 -15 -33 -49 -51 0
-13 -15 -33 -49 -53 0
-13 -15 -33 -51 -53 0
-13 -15 -35 -49 -51 0
-13 -15 -35 -49 -53 0
-13 -15 -35 -51 -53 0
-13 -15 -49 -51 -53 0
-13 -17 -31 -33 -35 0
-13 -17 -31 -33 -49 0
-13 -17 -31 -33 -51 0
-13 -17 -31 -33 -53 0
-13 -17 -31 -35 -49 0
-13 -17 -31 -35 -51 0
-13 -17 -31 -35 -53 0
-13 -17 -31 -49 -51 0
-13 -17 -31 -49 -53 0
-13 -17 -31 -51 -53 0
-13 -17 -33 -35 -49 0
-13 -17 -33 -35 -51 0
-13 -17 -33 -35 -53 0
-13 -17 -33 -49 -51 0
-13 -17 -33 -49 -53 0
-13 -17 -33 -51 -53 0
-13 -17 -35 -49 -51 0
-13 -17 -35 -49 -53 0
-13 -17 -35 -51 -53 0
-13 -17 -49 -51 -53 0
-13 -31 -33 -35 -49 0
-13 -31 -33 -35 -51 0
-13 -31 -33 -35 -53 0
-13 -31 -33 -49 -51 0
-13 -31 -33 -49 -53 0
-13 -31 -33 -51 -53 0
-13 -31 -35 -49 -51 0
-13 -31 -35 -49 -53 0
-13 -31 -35 -51 -53 0
-13 -31 -49 -51 -53 0
-13 -33 -35 -49 -51 0
-13 -33 -35 -49 -53 0
-13 -33 -35 -51 -53 0
-13 -33 -49 -51 -53 0
-13 -35 -49 -51 -53 0
-15 -17 -31 -33 -35 0
-15 -17 -31 -33 -49 0
-15 -17 -31 -33 -51 0
-15 -17 -31 -33 -53 0
-15 -17 -31 -35 -49 0
-15 -17 -31 -35 -51 0
-15 -17 -31 -35 -53 0
-15 -17 -31 -49 -51 0
-15 -17 -31 -49 -53 0
-15 -17 -31 -51 -53 0
-15 -17 -33 -35 -49 0
-15 -17 -33 -35 -51 0
-15 -17 -33 -35 -53 0
-15 -17 -33 -49 -51 0
-15 -17 -33 -49 -53 0
-15 -17 -33 -51 -53 0
-15 -17 -35 -49 -51 0
-15 -17 -35 -49 -53 0
-15 -17 -35 -51 -53 0
-15 -17 -49 -51 -53 0
-15 -31 -33 -35 -49 0
-15 -31 -33 -35 -51 0
-15 -31 -33 -35 -53 0
-15 -31 -33 -49 -51 0
-15 -31 -33 -49 -53 0
-15 -31 -33 -51 -53 0
-15 -31 -35 -49 -51 0
-15 -31 -35 -49 -53 0
-15 -31 -35 -51 -53 0
-15 -31 -49 -51 -53 0
-15 -33 -35 -49 -51 0
-15 -33 -35 -49 -53 0
-15 -33 -35 -51 -53 0
-15 -33 -49 -51 -53 0
-15 -35 -49 -51 -53 0
-17 -31 -33 -35 -49 0
-17 -31 -33 -35 -51 0
-17 -31 -33 -35 -53 0
-17 -31 -33 -49 -51 0
-17 -31 -33 -49 -53 0
-17 -31 -33 -51 -53 0
-17 -31 -35 -49 -51 0
-17 -31 -35 -49 -53 0
-17 -31 -35 -51 -53 0
-17 -31 -49 -51 -53 0
-17 -33 -35 -49 -51 0
-17 -33 -35 -49 -53 0
-17 -33 -35 -51 -53 0
-17 -33 -49 -51 -53 0
-17 -35 -49 -51 -53 0
-31 -33 -35 -49 -51 0
-31 -33 -35 -49 -53 0
-31 -33 -35 -51 -53 0
-31 -33 -49 -51 -53 0
-31 -35 -49 -51 -53 0
-33 -35 -49 -51 -53 0
-14 -16 -18 -32 -34 0
-14 -16 -18 -32 -36 0
-14 -16 -18 -32 -50 0
-14 -16 -18 -32 -52 0
-14 -16 -18 -32 -54 0
-14 -16 -18 -34 -36 0
-14 -16 -18 -34 -50 0
-14 -16 -18 -34 -52 0
-14 -16 -18 -34 -54 0
-14 -16 -18 -36 -50 0
-14 -16 -18 -36 -52 0
-14 -16 -18 -36 -54 0
-14 -16 -18 -50 -52 0
-14 -16 -18 -50 -54 0
-14 -16 -18 -52 -54 0
-14 -16 -32 -34 -36 0
-14 -16 -32 -34 -50 0
-14 -16 -32 -34 -52 0
-14 -16 -32 -34 -54 0
-14 -16 -32 -36 -50 0
-14 -16 -32 -36 -52 0
-14 -16 -32 -36 -54 0
-14 -16 -32 -50 -52 0
-14 -16 -32 -50 -54 0
-14 -16 -32 -52 -54 0
-14 -16 -34 -36 -50 0
-14 -16 -34 -36 -52 0
-14 -16 -34 -36 -54 0
-14 -16 -34 -50 -52 0
-14 -16 -34 -50 -54 0
-14 -16 -34 -52 -54 0
-14 -16 -36 -50 -52 0
-14 -16 -36 -50 -54 0
-14 -16 -36 -52 -54 0
-14 -16 -50 -52 -54 0
-14 -18 -32 -34 -36 0
-14 -18 -32 -34 -50 0
-14 -18 -32 -34 -52 0
-14 -18 -32 -34 -54 0
-14 -18 -32 -36 -50 0
-14 -18 -32 -36 -52 0
-14 -18 -32 -36 -54 0
-14 -18 -32 -50 -52 0
-14 -18 -32 -50 -54 0
-14 -18 -32 -52 -54 0
-14 -18 -34 -36 -50 0
-14 -18 -34 -36 -52 0
-14 -18 -34 -36 -54 0
-14 -18 -34 -50 -52 0
-14 -18 -34 -50 -54 0
-14 -18 -34 -52 -54 0
-14 -18 -36 -50 -52 0
-14 -18 -36 -50 -54 0
-14 -18 -36 -52 -54 0
-14 -18 -50 -52 -54 0
-14 -32 -34 -36 -50 0
-14 -32 -34 -36 -52 0
-14 -32 -34 -36 -54 0
-14 -32 -34 -50 -52 0
-14 -32 -34 -50 -54 0
-14 -32 -34 -52 -54 0
-14 -32 -36 -50 -52 0
-14 -32 -36 -50 -54 0
-14 -32 -36 -52 -54 0
-14 -32 -50 -52 -54 0
-14 -34 -36 -50 -52 0
-14 -34 -36 -50 -54 0
-14 -34 -36 -52 -54 0
-14 -34 -50 -52 -54 0
-14 -36 -50 -52 -54 0
-16 -18 -32 -34 -36 0
-16 -18 -32 -34 -50 0
-16 -18 -32 -34 -52 0
-16 -18 -32 -34 -54 0
-16 -18 -32 -36 -50 0
-16 -18 -32 -36 -52 0
-16 -18 -32 -36 -54 0
-16 -18 -32 -50 -52 0
-16 -18 -32 -50 -54 0
-16 -18 -32 -52 -54 0
-16 -18 -34 -36 -50 0
-16 -18 -34 -36 -52 0
-16 -18 -34 -36 -54 0
-16 -18 -34 -50 -52 0
-16 -18 -34 -50 -54 0
-16 -18 -34 -52 -54 0
-16 -18 -36 -50 -52 0
-16 -18 -36 -50 -54 0
-16 -18 -36 -52 -54 0
-16 -18 -50 -52 -54 0
-16 -32 -34 -36 -50 0
-16 -32 -34 -36 -52 0
-16 -32 -34 -36 -54 0
-16 -32 -34 -50 -52 0
-16 -32 -34 -50 -54 0
-16 -32 -34 -52 -54 0
-16 -32 -36 -50 -52 0
-16 -32 -36 -50 -54 0
-16 -32 -36 -52 -54 0
-16 -32 -50 -52 -54 0
-16 -34 -36 -50 -52 0
-16 -34 -36 -50 -54 0
-16 -34 -36 -52 -54 0
-16 -34 -50 -52 -54 0
-16 -36 -50 -52 -54 0
-18 -32 -34 -36 -50 0
-18 -32 -34 -36 -52 0
-18 -32 -34 -36 -54 0
-18 -32 -34 -50 -52 0
-18 -32 -34 -50 -54 0
-18 -32 -34 -52 -54 0
-18 -32 -36 -50 -52 0
-18 -32 -36 -50 -54 0
-18 -32 -36 -52 -54 0
-18 -32 -50 -52 -54 0
-18 -34 -36 -50 -52 0
-18 -34 -36 -50 -54 0
-18 -34 -36 -52 -54 0
-18 -34 -50 -52 -54 0
-18 -36 -50 -52 -54 0
-32 -34 -36 -50 -52 0
-32 -34 -36 -50 -54 0
-32 -34 -36 -52 -54 0
-32 -34 -50 -52 -54 0
-32 -36 -50 -52 -54 0
-34 -36 -50 -52 -54 0
-1 -2 -5 0
-1 -3 -5 0
-1 -3 -6 0
-1 -6 -33 0
-1 -6 -43 0
-1 -6 -45 0
-1 -9 -46 0
-1 -19 -37 0
-1 -21 -41 0
-1 -23 -39 0
-1 -25 -36 0
-2 -4 -6 0
-2 -5 -31 0
-2 -5 -43 0
-2 -5 -47 0
-2 -9 -31 0
-2 -9 -43 0
-2 -9 -47 0
-2 -10 -53 0
-2 -16 -53 0
-2 -20 -38 0
-2 -22 -33 0
-2 -22 -42 0
-2 -24 -31 0
-2 -24 -40 0
-2 -31 -34 0
-2 -32 -53 0
-2 -40 -53 0
-2 -42 -53 0
-3 -4 -5 0
-3 -4 -35 0
-3 -4 -45 0
-3 -4 -47 0
-3 -11 -44 0
-3 -19 -41 0
-3 -21 -39 0
-3 -23 -37 0
-3 -27 -34 0
-4 -7 -35 0
-4 -7 -45 0
-4 -7 -47 0
-4 -12 -51 0
-4 -18 -51 0
-4 -20 -35 0
-4 -20 -42 0
-4 -22 -40 0
-4 -24 -31 0
-4 -24 -38 0
-4 -34 -51 0
-4 -35 -36 0
-4 -38 -51 0
-4 -42 -51 0
-5 -7 -48 0
-5 -19 -39 0
-5 -21 -37 0
-5 -23 -41 0
-5 -29 -32 0
-6 -8 -49 0
-6 -11 -33 0
-6 -11 -43 0
-6 -11 -45 0
-6 -14 -49 0
-6 -20 -35 0
-6 -20 -40 0
-6 -22 -33 0
-6 -22 -38 0
-6 -24 -42 0
-6 -32 -33 0
-6 -36 -49 0
-6 -38 -49 0
-6 -40 -49 0
-7 -9 -11 0
-7 -9 -48 0
-7 -10 -45 0
-7 -11 -44 0
-7 -14 -47 0
-7 -15 -48 0
-7 -15 -54 0
-7 -19 -42 0
-7 -23 -38 0
-7 -25 -43 0
-7 -27 -38 0
-7 -27 -47 0
-7 -27 -54 0
-7 -29 -32 0
-7 -29 -42 0
-7 -29 -45 0
-7 -29 -48 0
-7 -31 -54 0
-7 -37 -54 0
-7 -45 -54 0
-8 -9 -47 0
-8 -10 -12 0
-8 -16 -49 0
-8 -26 -44 0
-8 -28 -48 0
-8 -30 -46 0
-8 -39 -47 0
-8 -43 -47 0
-8 -47 -49 0
-9 -11 -46 0
-9 -17 -46 0
-9 -17 -52 0
-9 -18 -43 0
-9 -19 -42 0
-9 -21 -40 0
-9 -25 -36 0
-9 -25 -40 0
-9 -25 -46 0
-9 -25 -47 0
-9 -27 -45 0
-9 -29 -42 0
-9 -29 -43 0
-9 -29 -52 0
-9 -33 -52 0
-9 -39 -52 0
-9 -47 -52 0
-10 -18 -53 0
-10 -26 -48 0
-10 -28 -46 0
-10 -30 -44 0
-10 -37 -45 0
-10 -45 -47 0
-10 -45 -53 0
-11 -12 -43 0
-11 -13 -44 0
-11 -13 -50 0
-11 -16 -45 0
-11 -21 -40 0
-11 -23 -38 0
-11 -25 -40 0
-11 -25 -45 0
-11 -25 -50 0
-11 -27 -34 0
-11 -27 -38 0
-11 -27 -43 0
-11 -27 -44 0
-11 -29 -47 0
-11 -35 -50 0
-11 -41 -50 0
-11 -43 -50 0
-12 -14 -51 0
-12 -26 -46 0
-12 -28 -44 0
-12 -30 -48 0
-12 -41 -43 0
-12 -43 -45 0
-12 -43 -51 0
-13 -15 -17 0
-13 -18 -42 0
-13 -18 -43 0
-13 -18 -52 0
-13 -20 -41 0
-13 -20 -42 0
-13 -20 -45 0
-13 -20 -52 0
-13 -22 -42 0
-13 -31 -49 0
-13 -33 -53 0
-13 -35 -51 0
-13 -42 -44 0
-13 -42 -50 0
-13 -44 -52 0
-13 -50 -52 0
-14 -16 -18 0
-14 -16 -49 0
-14 -17 -38 0
-14 -17 -47 0
-14 -17 -54 0
-14 -18 -51 0
-14 -23 -47 0
-14 -25 -47 0
-14 -32 -50 0
-14 -34 -51 0
-14 -34 -54 0
-14 -36 -52 0
-14 -42 -51 0
-14 -47 -49 0
-15 -16 -40 0
-15 -16 -45 0
-15 -16 -50 0
-15 -20 -40 0
-15 -24 -37 0
-15 -24 -40 0
-15 -24 -47 0
-15 -24 -50 0
-15 -31 -53 0
-15 -33 -51 0
-15 -35 -49 0
-15 -40 -48 0
-15 -40 -54 0
-15 -48 -50 0
-15 -50 -54 0
-16 -18 -53 0
-16 -21 -45 0
-16 -29 -45 0
-16 -32 -54 0
-16 -34 -52 0
-16 -36 -49 0
-16 -36 -50 0
-16 -38 -49 0
-16 -45 -53 0
-17 -22 -38 0
-17 -22 -39 0
-17 -22 -43 0
-17 -22 -54 0
-17 -24 -38 0
-17 -31 -51 0
-17 -33 -49 0
-17 -35 -53 0
-17 -38 -46 0
-17 -38 -52 0
-17 -46 -54 0
-17 -52 -54 0
-18 -19 -43 0
-18 -27 -43 0
-18 -32 -52 0
-18 -32 -53 0
-18 -34 -50 0
-18 -36 -54 0
-18 -40 -53 0
-18 -43 -51 0
-19 -21 -23 0
-19 -21 -42 0
-19 -23 -38 0
-19 -27 -28 0
-19 -42 -51 0
-20 -22 -24 0
-20 -25 -41 0
-20 -25 -45 0
-20 -28 -35 0
-20 -29 -41 0
-20 -29 -45 0
-20 -34 -35 0
-20 -35 -50 0
-20 -37 -41 0
-21 -23 -40 0
-21 -26 -29 0
-21 -40 -53 0
-22 -27 -39 0
-22 -27 -43 0
-22 -29 -39 0
-22 -29 -43 0
-22 -30 -33 0
-22 -33 -36 0
-22 -33 -52 0
-22 -39 -41 0
-23 -25 -30 0
-23 -38 -49 0
-24 -25 -37 0
-24 -25 -47 0
-24 -26 -31 0
-24 -27 -37 0
-24 -27 -47 0
-24 -31 -32 0
-24 -31 -54 0
-24 -37 -39 0
-25 -26 -29 0
-25 -27 -29 0
-25 -27 -30 0
-25 -30 -33 0
-25 -30 -47 0
-25 -33 -36 0
-25 -36 -45 0
-25 -36 -49 0
-25 -40 -53 0
-26 -28 -30 0
-26 -29 -31 0
-26 -29 -45 0
-26 -31 -34 0
-27 -28 -29 0
-27 -28 -35 0
-27 -28 -43 0
-27 -34 -35 0
-27 -34 -47 0
-27 -34 -51 0
-27 -38 -49 0
-28 -35 -36 0
-29 -31 -32 0
-29 -32 -43 0
-29 -32 -53 0
-29 -42 -51 0
-30 -32 -33 0
-31 -32 -34 0
-31 -33 -35 0
-31 -34 -54 0
-32 -33 -36 0
-32 -33 -52 0
-32 -34 -36 0
-34 -35 -36 0
-35 -36 -50 0
-37 -39 -41 0
-38 -40 -42 0
-43 -45 -47 0
-44 -46 -48 0
-49 -51 -53 0
-50 -52 -54 0
-1 -2 -3 -4 0
-1 -2 -8 -47 0
-1 -2 -9 -20 0
-1 -2 -9 -36 0
-1 -2 -9 -42 0
-1 -2 -9 -48 0
-1 -2 -9 -50 0
-1 -2 -11 -44 0
-1 -2 -11 -54 0
-1 -2 -12 -43 0
-1 -2 -13 -42 0
-1 -2 -14 -41 0
-1 -2 -14 -47 0
-1 -2 -14 -53 0
-1 -2 -15 -54 0
-1 -2 -17 -38 0
-1 -2 -17 -44 0
-1 -2 -17 -54 0
-1 -2 -19 -36 0
-1 -2 -19 -46 0
-1 -2 -22 -39 0
-1 -2 -22 -53 0
-1 -2 -23 -38 0
-1 -2 -27 -34 0
-1 -2 -27 -54 0
-1 -2 -31 -54 0
-1 -2 -33 -54 0
-1 -2 -36 -53 0
-1 -2 -37 -54 0
-1 -2 -41 -54 0
-1 -2 -44 -53 0
-1 -2 -45 -54 0
-1 -2 -46 -53 0
-1 -2 -46 -54 0
-1 -2 -47 -54 0
-1 -3 -4 -20 0
-1 -3 -4 -36 0
-1 -3 -4 -42 0
-1 -3 -4 -46 0
-1 -3 -4 -48 0
-1 -3 -8 -46 0
-1 -3 -10 -46 0
-1 -4 -5 -6 0
-1 -4 -6 -23 0
-1 -4 -6 -39 0
-1 -4 -15 -46 0
-1 -4 -36 -49 0
-1 -4 -46 -51 0
-1 -5 -6 -22 0
-1 -5 -6 -32 0
-1 -5 -6 -38 0
-1 -5 -6 -44 0
-1 -5 -6 -48 0
-1 -5 -10 -48 0
-1 -5 -12 -48 0
-1 -6 -8 -23 0
-1 -6 -8 -39 0
-1 -6 -10 -53 0
-1 -6 -14 -23 0
-1 -6 -14 -39 0
-1 -6 -14 -46 0
-1 -6 -14 -53 0
-1 -6 -16 -29 0
-1 -6 -16 -53 0
-1 -6 -18 -27 0
-1 -6 -20 -29 0
-1 -6 -22 -27 0
-1 -6 -22 -29 0
-1 -6 -22 -39 0
-1 -6 -23 -30 0
-1 -6 -23 -34 0
-1 -6 -23 -36 0
-1 -6 -23 -38 0
-1 -6 -23 -40 0
-1 -6 -24 -27 0
-1 -6 -24 -39 0
-1 -6 -27 -34 0
-1 -6 -27 -38 0
-1 -6 -27 -44 0
-1 -6 -27 -54 0
-1 -6 -29 -38 0
-1 -6 -29 -46 0
-1 -6 -29 -48 0
-1 -6 -29 -52 0
-1 -6 -32 -53 0
-1 -6 -34 -49 0
-1 -6 -36 -53 0
-1 -6 -39 -46 0
-1 -6 -39 -52 0
-1 -6 -40 -53 0
-1 -6 -44 -49 0
-1 -6 -44 -53 0
-1 -6 -46 -53 0
-1 -7 -8 -52 0
-1 -7 -10 -20 0
-1 -7 -10 -36 0
-1 -7 -10 -42 0
-1 -7 -10 -46 0
-1 -7 -10 -52 0
-1 -8 -19 -36 0
-1 -8 -19 -46 0
-1 -8 -20 -35 0
-1 -8 -26 -47 0
-1 -8 -30 -47 0
-1 -8 -35 -36 0
-1 -8 -36 -47 0
-1 -8 -36 -53 0
-1 -8 -42 -47 0
-1 -8 -46 -47 0
-1 -8 -46 -53 0
-1 -8 -47 -52 0
-1 -9 -10 -36 0
-1 -9 -10 -42 0
-1 -9 -12 -20 0
-1 -9 -12 -50 0
-1 -9 -35 -36 0
-1 -9 -35 -52 0
-1 -10 -17 -46 0
-1 -10 -17 -52 0
-1 -10 -20 -37 0
-1 -10 -26 -31 0
-1 -10 -26 -37 0
-1 -10 -30 -37 0
-1 -10 -30 -47 0
-1 -10 -31 -36 0
-1 -10 -36 -37 0
-1 -10 -36 -38 0
-1 -10 -36 -53 0
-1 -10 -37 -46 0
-1 -10 -37 -52 0
-1 -10 -41 -46 0
-1 -10 -41 -50 0
-1 -10 -46 -53 0
-1 -10 -47 -52 0
-1 -10 -48 -53 0
-1 -11 -36 -44 0
-1 -11 -44 -46 0
-1 -11 -44 -48 0
-1 -11 -46 -54 0
-1 -12 -13 -42 0
-1 -12 -13 -43 0
-1 -12 -13 -46 0
-1 -12 -13 -52 0
-1 -12 -19 -36 0
-1 -12 -19 -46 0
-1 -12 -21 -26 0
-1 -12 -21 -46 0
-1 -12 -26 -41 0
-1 -12 -30 -43 0
-1 -12 -32 -43 0
-1 -12 -36 -43 0
-1 -12 -36 -49 0
-1 -12 -41 -46 0
-1 -12 -43 -46 0
-1 -12 -43 -50 0
-1 -12 -43 -52 0
-1 -13 -16 -42 0
-1 -13 -22 -43 0
-1 -13 -22 -52 0
-1 -13 -25 -42 0
-1 -14 -15 -46 0
-1 -14 -15 -47 0
-1 -14 -15 -50 0
-1 -14 -19 -36 0
-1 -14 -23 -36 0
-1 -14 -23 -52 0
-1 -14 -26 -45 0
-1 -14 -26 -47 0
-1 -14 -30 -47 0
-1 -14 -36 -39 0
-1 -14 -36 -47 0
-1 -14 -36 -53 0
-1 -14 -39 -52 0
-1 -14 -41 -46 0
-1 -14 -41 -50 0
-1 -14 -42 -47 0
-1 -14 -46 -47 0
-1 -14 -46 -51 0
-1 -14 -47 -52 0
-1 -15 -16 -46 0
-1 -15 -20 -54 0
-1 -15 -24 -46 0
-1 -15 -26 -29 0
-1 -15 -26 -54 0
-1 -15 -29 -46 0
-1 -15 -29 -50 0
-1 -15 -36 -54 0
-1 -15 -46 -48 0
-1 -15 -46 -54 0
-1 -15 -48 -54 0
-1 -16 -39 -46 0
-1 -16 -39 -52 0
-1 -17 -44 -46 0
-1 -17 -44 -52 0
-1 -18 -19 -36 0
-1 -18 -19 -46 0
-1 -18 -36 -53 0
-1 -19 -28 -36 0
-1 -19 -28 -46 0
-1 -19 -34 -36 0
-1 -19 -34 -46 0
-1 -19 -36 -38 0
-1 -20 -22 -39 0
-1 -20 -35 -38 0
-1 -20 -35 -44 0
-1 -20 -37 -54 0
-1 -21 -26 -34 0
-1 -21 -26 -44 0
-1 -21 -26 -46 0
-1 -21 -26 -54 0
-1 -21 -34 -36 0
-1 -21 -34 -42 0
-1 -21 -36 -44 0
-1 -21 -36 -54 0
-1 -21 -42 -54 0
-1 -22 -30 -39 0
-1 -22 -30 -43 0
-1 -22 -33 -46 0
-1 -22 -36 -39 0
-1 -22 -36 -43 0
-1 -22 -39 -46 0
-1 -22 -39 -50 0
-1 -22 -39 -52 0
-1 -22 -43 -46 0
-1 -22 -43 -50 0
-1 -23 -30 -38 0
-1 -23 -30 -54 0
-1 -23 -36 -38 0
-1 -23 -36 -52 0
-1 -23 -36 -54 0
-1 -23 -38 -42 0
-1 -23 -38 -46 0
-1 -23 -38 -52 0
-1 -24 -31 -36 0
-1 -25 -31 -54 0
-1 -26 -27 -54 0
-1 -26 -31 -54 0
-1 -26 -37 -54 0
-1 -26 -41 -46 0
-1 -26 -45 -54 0
-1 -27 -30 -34 0
-1 -27 -30 -38 0
-1 -27 -30 -54 0
-1 -27 -32 -54 0
-1 -27 -34 -36 0
-1 -27 -34 -46 0
-1 -27 -35 -38 0
-1 -27 -35 -54 0
-1 -27 -36 -38 0
-1 -27 -36 -54 0
-1 -27 -38 -46 0
-1 -27 -46 -54 0
-1 -29 -36 -46 0
-1 -30 -33 -54 0
-1 -30 -37 -54 0
-1 -30 -47 -54 0
-1 -31 -32 -54 0
-1 -31 -34 -36 0
-1 -31 -36 -54 0
-1 -31 -46 -54 0
-1 -31 -50 -54 0
-1 -32 -33 -46 0
-1 -32 -37 -54 0
-1 -33 -36 -54 0
-1 -33 -46 -54 0
-1 -33 -52 -54 0
-1 -35 -36 -38 0
-1 -35 -36 -44 0
-1 -36 -37 -54 0
-1 -36 -39 -52 0
-1 -36 -45 -54 0
-1 -37 -46 -54 0
-1 -37 -52 -54 0
-1 -41 -46 -54 0
-1 -41 -50 -54 0
-1 -42 -45 -54 0
-1 -45 -46 -54 0
-1 -45 -50 -54 0
-1 -47 -52 -54 0
-2 -3 -4 -19 0
-2 -3 -4 -41 0
-2 -3 -5 -6 0
-2 -3 -5 -24 0
-2 -3 -5 -34 0
-2 -3 -5 -40 0
-2 -3 -5 -44 0
-2 -3 -5 -46 0
-2 -3 -17 -44 0
-2 -3 -34 -51 0
-2 -3 -44 -53 0
-2 -5 -6 -21 0
-2 -5 -6 -37 0
-2 -5 -10 -21 0
-2 -5 -10 -37 0
-2 -5 -12 -51 0
-2 -5 -14 -25 0
-2 -5 -16 -21 0
-2 -5 -16 -37 0
-2 -5 -16 -48 0
-2 -5 -16 -51 0
-2 -5 -18 -27 0
-2 -5 -18 -51 0
-2 -5 -20 -25 0
-2 -5 -20 -37 0
-2 -5 -21 -26 0
-2 -5 -21 -32 0
-2 -5 -21 -36 0
-2 -5 -21 -40 0
-2 -5 -21 -42 0
-2 -5 -22 -27 0
-2 -5 -24 -25 0
-2 -5 -24 -27 0
-2 -5 -24 -37 0
-2 -5 -25 -36 0
-2 -5 -25 -40 0
-2 -5 -25 -46 0
-2 -5 -25 -50 0
-2 -5 -27 -40 0
-2 -5 -27 -44 0
-2 -5 -27 -48 0
-2 -5 -27 -54 0
-2 -5 -32 -51 0
-2 -5 -34 -51 0
-2 -5 -36 -53 0
-2 -5 -37 -48 0
-2 -5 -37 -54 0
-2 -5 -42 -51 0
-2 -5 -46 -51 0
-2 -5 -46 -53 0
-2 -5 -48 -51 0
-2 -7 -14 -53 0
-2 -7 -33 -48 0
-2 -7 -44 -53 0
-2 -7 -47 -54 0
-2 -8 -9 -50 0
-2 -8 -11 -47 0
-2 -8 -13 -47 0
-2 -8 -33 -47 0
-2 -9 -10 -21 0
-2 -9 -10 -37 0
-2 -9 -12 -51 0
-2 -9 -14 -25 0
-2 -9 -16 -21 0
-2 -9 -17 -37 0
-2 -9 -18 -27 0
-2 -9 -18 -51 0
-2 -9 -20 -25 0
-2 -9 -20 -53 0
-2 -9 -21 -26 0
-2 -9 -21 -33 0
-2 -9 -21 -36 0
-2 -9 -22 -27 0
-2 -9 -24 -25 0
-2 -9 -24 -27 0
-2 -9 -24 -37 0
-2 -9 -25 -42 0
-2 -9 -27 -40 0
-2 -9 -27 -44 0
-2 -9 -27 -48 0
-2 -9 -34 -51 0
-2 -9 -36 -53 0
-2 -9 -37 -48 0
-2 -9 -37 -54 0
-2 -9 -42 -51 0
-2 -9 -44 -53 0
-2 -10 -17 -54 0
-2 -10 -18 -51 0
-2 -10 -31 -45 0
-2 -10 -43 -45 0
-2 -11 -22 -43 0
-2 -11 -22 -53 0
-2 -11 -24 -27 0
-2 -11 -24 -37 0
-2 -11 -24 -43 0
-2 -11 -24 -47 0
-2 -11 -25 -36 0
-2 -11 -27 -40 0
-2 -11 -31 -44 0
-2 -11 -31 -50 0
-2 -11 -33 -44 0
-2 -11 -36 -53 0
-2 -11 -40 -43 0
-2 -11 -41 -53 0
-2 -11 -46 -53 0
-2 -12 -16 -43 0
-2 -12 -17 -43 0
-2 -12 -43 -47 0
-2 -13 -14 -53 0
-2 -13 -16 -43 0
-2 -13 -20 -53 0
-2 -13 -21 -42 0
-2 -13 -22 -53 0
-2 -13 -25 -42 0
-2 -13 -27 -28 0
-2 -13 -31 -42 0
-2 -13 -33 -42 0
-2 -13 -42 -43 0
-2 -13 -42 -47 0
-2 -13 -42 -51 0
-2 -13 -44 -53 0
-2 -14 -17 -53 0
-2 -14 -23 -53 0
-2 -14 -25 -41 0
-2 -14 -25 -53 0
-2 -14 -26 -47 0
-2 -14 -49 -53 0
-2 -15 -20 -53 0
-2 -16 -43 -45 0
-2 -17 -22 -31 0
-2 -17 -22 -51 0
-2 -17 -22 -53 0
-2 -17 -25 -30 0
-2 -17 -25 -54 0
-2 -17 -27 -38 0
-2 -17 -27 -44 0
-2 -17 -30 -31 0
-2 -17 -31 -38 0
-2 -17 -31 -42 0
-2 -17 -31 -44 0
-2 -17 -31 -54 0
-2 -17 -33 -38 0
-2 -17 -37 -38 0
-2 -17 -37 -54 0
-2 -17 -38 -43 0
-2 -17 -38 -47 0
-2 -17 -38 -51 0
-2 -17 -42 -51 0
-2 -17 -43 -54 0
-2 -17 -46 -53 0
-2 -17 -47 -54 0
-2 -18 -28 -43 0
-2 -18 -43 -47 0
-2 -19 -20 -53 0
-2 -19 -21 -40 0
-2 -19 -25 -46 0
-2 -19 -26 -53 0
-2 -19 -27 -38 0
-2 -19 -27 -48 0
-2 -19 -33 -36 0
-2 -19 -42 -47 0
-2 -19 -44 -53 0
-2 -20 -25 -53 0
-2 -20 -29 -53 0
-2 -20 -33 -53 0
-2 -20 -37 -53 0
-2 -21 -26 -53 0
-2 -21 -32 -33 0
-2 -21 -40 -43 0
-2 -21 -40 -47 0
-2 -22 -27 -53 0
-2 -22 -29 -53 0
-2 -22 -31 -39 0
-2 -22 -31 -43 0
-2 -22 -31 -51 0
-2 -22 -31 -53 0
-2 -22 -41 -43 0
-2 -22 -41 -53 0
-2 -23 -30 -31 0
-2 -23 -38 -43 0
-2 -24 -27 -43 0
-2 -24 -37 -41 0
-2 -25 -26 -53 0
-2 -25 -30 -43 0
-2 -25 -40 -43 0
-2 -25 -40 -47 0
-2 -25 -46 -53 0
-2 -26 -29 -47 0
-2 -26 -31 -53 0
-2 -26 -41 -53 0
-2 -26 -45 -53 0
-2 -26 -47 -53 0
-2 -27 -28 -41 0
-2 -27 -28 -54 0
-2 -27 -34 -41 0
-2 -27 -38 -43 0
-2 -27 -40 -43 0
-2 -27 -44 -53 0
-2 -28 -33 -43 0
-2 -28 -37 -54 0
-2 -29 -42 -47 0
-2 -30 -31 -33 0
-2 -30 -31 -43 0
-2 -30 -31 -47 0
-2 -30 -41 -43 0
-2 -30 -41 -47 0
-2 -31 -32 -33 0
-2 -31 -42 -51 0
-2 -31 -44 -53 0
-2 -31 -46 -53 0
-2 -32 -33 -43 0
-2 -32 -33 -47 0
-2 -32 -33 -51 0
-2 -33 -36 -53 0
-2 -33 -44 -53 0
-2 -36 -41 -53 0
-2 -36 -45 -53 0
-2 -36 -49 -53 0
-3 -4 -8 -49 0
-3 -4 -12 -19 0
-3 -4 -12 -41 0
-3 -4 -14 -25 0
-3 -4 -14 -49 0
-3 -4 -16 -29 0
-3 -4 -18 -19 0
-3 -4 -18 -41 0
-3 -4 -18 -44 0
-3 -4 -18 -49 0
-3 -4 -19 -28 0
-3 -4 -19 -32 0
-3 -4 -19 -34 0
-3 -4 -19 -38 0
-3 -4 -19 -42 0
-3 -4 -20 -25 0
-3 -4 -20 -29 0
-3 -4 -20 -41 0
-3 -4 -22 -29 0
-3 -4 -22 -41 0
-3 -4 -24 -25 0
-3 -4 -25 -42 0
-3 -4 -25 -44 0
-3 -4 -25 -46 0
-3 -4 -25 -50 0
-3 -4 -29 -32 0
-3 -4 -29 -42 0
-3 -4 -29 -48 0
-3 -4 -29 -52 0
-3 -4 -32 -51 0
-3 -4 -34 -49 0
-3 -4 -36 -49 0
-3 -4 -38 -49 0
-3 -4 -41 -44 0
-3 -4 -41 -50 0
-3 -4 -44 -49 0
-3 -4 -48 -49 0
-3 -4 -48 -51 0
-3 -5 -8 -44 0
-3 -5 -12 -44 0
-3 -6 -7 -48 0
-3 -6 -7 -52 0
-3 -6 -10 -45 0
-3 -6 -11 -24 0
-3 -6 -11 -34 0
-3 -6 -11 -40 0
-3 -6 -11 -46 0
-3 -6 -11 -54 0
-3 -6 -12 -43 0
-3 -6 -13 -42 0
-3 -6 -13 -48 0
-3 -6 -13 -52 0
-3 -6 -15 -40 0
-3 -6 -17 -52 0
-3 -6 -18 -37 0
-3 -6 -18 -43 0
-3 -6 -18 -49 0
-3 -6 -19 -42 0
-3 -6 -20 -41 0
-3 -6 -20 -49 0
-3 -6 -21 -34 0
-3 -6 -21 -44 0
-3 -6 -29 -32 0
-3 -6 -29 -52 0
-3 -6 -33 -52 0
-3 -6 -34 -49 0
-3 -6 -35 -52 0
-3 -6 -37 -52 0
-3 -6 -39 -52 0
-3 -6 -43 -52 0
-3 -6 -44 -49 0
-3 -6 -44 -52 0
-3 -6 -47 -52 0
-3 -6 -48 -49 0
-3 -7 -34 -48 0
-3 -7 -44 -48 0
-3 -7 -44 -52 0
-3 -7 -46 -48 0
-3 -8 -9 -24 0
-3 -8 -9 -34 0
-3 -8 -9 -40 0
-3 -8 -9 -44 0
-3 -8 -9 -50 0
-3 -8 -11 -34 0
-3 -8 -11 -40 0
-3 -8 -13 -44 0
-3 -8 -13 -50 0
-3 -8 -24 -39 0
-3 -8 -28 -39 0
-3 -8 -28 -43 0
-3 -8 -30 -33 0
-3 -8 -30 -39 0
-3 -8 -33 -34 0
-3 -8 -34 -39 0
-3 -8 -34 -42 0
-3 -8 -34 -49 0
-3 -8 -37 -44 0
-3 -8 -37 -54 0
-3 -8 -39 -44 0
-3 -8 -39 -50 0
-3 -8 -43 -50 0
-3 -8 -44 -49 0
-3 -8 -46 -49 0
-3 -9 -12 -50 0
-3 -10 -11 -24 0
-3 -10 -11 -54 0
-3 -10 -15 -40 0
-3 -10 -15 -44 0
-3 -10 -15 -45 0
-3 -10 -15 -50 0
-3 -10 -21 -34 0
-3 -10 -21 -44 0
-3 -10 -23 -30 0
-3 -10 -23 -44 0
-3 -10 -28 -45 0
-3 -10 -30 -37 0
-3 -10 -34 -45 0
-3 -10 -34 -51 0
-3 -10 -36 -45 0
-3 -10 -37 -44 0
-3 -10 -44 -45 0
-3 -10 -45 -50 0
-3 -10 -45 -54 0
-3 -11 -31 -34 0
-3 -11 -31 -50 0
-3 -12 -21 -34 0
-3 -12 -21 -44 0
-3 -12 -24 -31 0
-3 -12 -28 -43 0
-3 -12 -30 -43 0
-3 -12 -31 -34 0
-3 -12 -34 -43 0
-3 -12 -34 -49 0
-3 -12 -40 -43 0
-3 -12 -43 -44 0
-3 -12 -43 -50 0
-3 -12 -44 -49 0
-3 -13 -44 -48 0
-3 -13 -48 -50 0
-3 -14 -15 -40 0
-3 -14 -17 -44 0
-3 -14 -41 -44 0
-3 -14 -41 -50 0
-3 -15 -20 -45 0
-3 -15 -20 -50 0
-3 -15 -27 -40 0
-3 -16 -21 -34 0
-3 -16 -21 -44 0
-3 -16 -34 -49 0
-3 -17 -18 -43 0
-3 -17 -18 -44 0
-3 -17 -18 -54 0
-3 -17 -22 -44 0
-3 -17 -24 -52 0
-3 -17 -25 -30 0
-3 -17 -25 -44 0
-3 -17 -25 -54 0
-3 -17 -30 -52 0
-3 -17 -34 -52 0
-3 -17 -44 -46 0
-3 -17 -44 -52 0
-3 -17 -46 -52 0
-3 -18 -19 -34 0
-3 -18 -19 -50 0
-3 -18 -21 -34 0
-3 -18 -28 -43 0
-3 -18 -30 -43 0
-3 -18 -30 -47 0
-3 -18 -34 -41 0
-3 -18 -34 -43 0
-3 -18 -34 -49 0
-3 -18 -37 -44 0
-3 -18 -37 -54 0
-3 -18 -40 -43 0
-3 -18 -41 -50 0
-3 -18 -43 -44 0
-3 -18 -43 -50 0
-3 -18 -44 -53 0
-3 -19 -28 -42 0
-3 -19 -28 -52 0
-3 -19 -34 -42 0
-3 -19 -34 -50 0
-3 -19 -34 -52 0
-3 -19 -40 -42 0
-3 -19 -42 -44 0
-3 -19 -42 -50 0
-3 -20 -24 -41 0
-3 -20 -28 -41 0
-3 -20 -28 -45 0
-3 -20 -34 -41 0
-3 -20 -34 -45 0
-3 -20 -35 -44 0
-3 -20 -41 -44 0
-3 -20 -41 -50 0
-3 -20 -41 -54 0
-3 -20 -44 -45 0
-3 -20 -45 -54 0
-3 -21 -26 -34 0
-3 -21 -26 -44 0
-3 -21 -32 -34 0
-3 -21 -32 -44 0
-3 -21 -34 -42 0
-3 -22 -33 -34 0
-3 -23 -30 -32 0
-3 -23 -30 -44 0
-3 -23 -30 -48 0
-3 -23 -30 -52 0
-3 -23 -32 -34 0
-3 -23 -32 -40 0
-3 -23 -34 -48 0
-3 -23 -34 -52 0
-3 -23 -40 -52 0
-3 -24 -31 -42 0
-3 -24 -31 -48 0
-3 -24 -39 -52 0
-3 -25 -34 -44 0
-3 -27 -33 -52 0
-3 -28 -29 -32 0
-3 -28 -29 -42 0
-3 -28 -29 -52 0
-3 -28 -35 -52 0
-3 -28 -39 -52 0
-3 -28 -43 -52 0
-3 -29 -30 -52 0
-3 -29 -31 -42 0
-3 -29 -31 -52 0
-3 -29 -32 -34 0
-3 -29 -32 -44 0
-3 -29 -34 -42 0
-3 -29 -34 -52 0
-3 -29 -36 -52 0
-3 -29 -42 -44 0
-3 -29 -44 -52 0
-3 -30 -33 -52 0
-3 -30 -37 -44 0
-3 -30 -39 -52 0
-3 -30 -47 -52 0
-3 -31 -34 -42 0
-3 -31 -34 -48 0
-3 -32 -33 -34 0
-3 -33 -34 -52 0
-3 -33 -36 -52 0
-3 -33 -44 -52 0
-3 -33 -52 -54 0
-3 -34 -35 -52 0
-3 -34 -39 -52 0
-3 -34 -41 -50 0
-3 -34 -47 -52 0
-3 -35 -36 -44 0
-3 -35 -44 -52 0
-3 -35 -50 -52 0
-3 -36 -39 -52 0
-3 -37 -44 -52 0
-3 -37 -52 -54 0
-3 -39 -44 -52 0
-3 -39 -50 -52 0
-3 -40 -47 -52 0
-3 -43 -50 -52 0
-3 -44 -47 -52 0
-3 -47 -52 -54 0
-4 -5 -7 -22 0
-4 -5 -7 -32 0
-4 -5 -7 -38 0
-4 -5 -7 -44 0
-4 -5 -7 -52 0
-4 -5 -8 -47 0
-4 -5 -9 -46 0
-4 -5 -9 -50 0
-4 -5 -10 -45 0
-4 -5 -13 -50 0
-4 -5 -15 -40 0
-4 -5 -15 -46 0
-4 -5 -15 -50 0
-4 -5 -16 -39 0
-4 -5 -16 -45 0
-4 -5 -16 -51 0
-4 -5 -17 -38 0
-4 -5 -21 -40 0
-4 -5 -23 -32 0
-4 -5 -23 -48 0
-4 -5 -24 -37 0
-4 -5 -24 -51 0
-4 -5 -25 -36 0
-4 -5 -25 -50 0
-4 -5 -31 -50 0
-4 -5 -32 -51 0
-4 -5 -35 -50 0
-4 -5 -39 -50 0
-4 -5 -41 -50 0
-4 -5 -43 -50 0
-4 -5 -45 -50 0
-4 -5 -46 -51 0
-4 -5 -48 -50 0
-4 -5 -48 -51 0
-4 -7 -8 -49 0
-4 -7 -10 -52 0
-4 -7 -12 -19 0
-4 -7 -12 -41 0
-4 -7 -14 -25 0
-4 -7 -14 -49 0
-4 -7 -15 -41 0
-4 -7 -16 -29 0
-4 -7 -18 -19 0
-4 -7 -19 -28 0
-4 -7 -19 -31 0
-4 -7 -19 -32 0
-4 -7 -20 -25 0
-4 -7 -20 -29 0
-4 -7 -20 -41 0
-4 -7 -22 -29 0
-4 -7 -22 -51 0
-4 -7 -24 -25 0
-4 -7 -25 -42 0
-4 -7 -25 -44 0
-4 -7 -25 -46 0
-4 -7 -29 -38 0
-4 -7 -32 -51 0
-4 -7 -36 -49 0
-4 -7 -38 -49 0
-4 -7 -41 -44 0
-4 -7 -41 -50 0
-4 -7 -46 -51 0
-4 -8 -15 -47 0
-4 -8 -18 -47 0
-4 -8 -45 -47 0
-4 -9 -10 -45 0
-4 -9 -20 -25 0
-4 -9 -20 -41 0
-4 -9 -20 -45 0
-4 -9 -20 -47 0
-4 -9 -24 -47 0
-4 -9 -24 -51 0
-4 -9 -25 -42 0
-4 -9 -29 -32 0
-4 -9 -31 -46 0
-4 -9 -32 -51 0
-4 -9 -35 -46 0
-4 -9 -35 -52 0
-4 -9 -39 -51 0
-4 -9 -42 -47 0
-4 -9 -48 -51 0
-4 -10 -17 -45 0
-4 -10 -31 -45 0
-4 -11 -16 -51 0
-4 -11 -31 -44 0
-4 -11 -45 -50 0
-4 -11 -46 -51 0
-4 -12 -14 -49 0
-4 -12 -15 -50 0
-4 -12 -35 -43 0
-4 -12 -43 -47 0
-4 -13 -22 -51 0
-4 -14 -30 -47 0
-4 -14 -45 -47 0
-4 -15 -16 -51 0
-4 -15 -24 -35 0
-4 -15 -24 -49 0
-4 -15 -24 -51 0
-4 -15 -25 -40 0
-4 -15 -25 -46 0
-4 -15 -26 -29 0
-4 -15 -26 -35 0
-4 -15 -29 -50 0
-4 -15 -31 -40 0
-4 -15 -35 -38 0
-4 -15 -35 -40 0
-4 -15 -35 -46 0
-4 -15 -35 -50 0
-4 -15 -38 -49 0
-4 -15 -40 -41 0
-4 -15 -40 -45 0
-4 -15 -40 -47 0
-4 -15 -40 -49 0
-4 -15 -41 -50 0
-4 -15 -45 -50 0
-4 -15 -47 -50 0
-4 -15 -48 -51 0
-4 -16 -17 -51 0
-4 -16 -21 -51 0
-4 -16 -28 -45 0
-4 -16 -29 -39 0
-4 -16 -29 -51 0
-4 -16 -51 -53 0
-4 -17 -18 -47 0
-4 -17 -19 -38 0
-4 -17 -22 -51 0
-4 -17 -24 -51 0
-4 -17 -25 -30 0
-4 -17 -29 -38 0
-4 -17 -31 -38 0
-4 -17 -35 -38 0
-4 -17 -38 -45 0
-4 -17 -38 -47 0
-4 -17 -38 -49 0
-4 -17 -46 -51 0
-4 -18 -43 -47 0
-4 -19 -23 -42 0
-4 -19 -28 -51 0
-4 -19 -31 -34 0
-4 -19 -42 -45 0
-4 -19 -42 -47 0
-4 -20 -25 -47 0
-4 -20 -39 -41 0
-4 -21 -26 -35 0
-4 -21 -40 -47 0
-4 -22 -23 -51 0
-4 -22 -27 -51 0
-4 -22 -29 -51 0
-4 -22 -31 -51 0
-4 -22 -41 -51 0
-4 -23 -25 -40 0
-4 -23 -25 -44 0
-4 -23 -28 -51 0
-4 -23 -29 -48 0
-4 -23 -31 -32 0
-4 -23 -38 -45 0
-4 -23 -46 -51 0
-4 -24 -25 -51 0
-4 -24 -27 -51 0
-4 -24 -35 -37 0
-4 -24 -35 -47 0
-4 -24 -35 -49 0
-4 -24 -35 -51 0
-4 -24 -39 -47 0
-4 -24 -39 -51 0
-4 -25 -30 -39 0
-4 -25 -30 -50 0
-4 -25 -36 -39 0
-4 -25 -40 -47 0
-4 -25 -42 -47 0
-4 -25 -46 -51 0
-4 -26 -29 -47 0
-4 -26 -31 -35 0
-4 -26 -35 -45 0
-4 -26 -35 -47 0
-4 -26 -39 -45 0
-4 -26 -39 -47 0
-4 -27 -28 -45 0
-4 -27 -38 -45 0
-4 -28 -29 -51 0
-4 -28 -35 -51 0
-4 -28 -39 -51 0
-4 -28 -43 -51 0
-4 -28 -45 -51 0
-4 -29 -42 -45 0
-4 -29 -42 -47 0
-4 -29 -48 -51 0
-4 -30 -31 -47 0
-4 -30 -41 -50 0
-4 -31 -32 -51 0
-4 -31 -34 -35 0
-4 -31 -34 -45 0
-4 -31 -34 -47 0
-4 -31 -34 -49 0
-4 -31 -46 -51 0
-4 -32 -39 -51 0
-4 -32 -43 -51 0
-4 -32 -51 -53 0
-4 -35 -38 -49 0
-4 -35 -46 -51 0
-4 -35 -48 -51 0
-5 -6 -13 -48 0
-5 -6 -32 -53 0
-5 -6 -48 -49 0
-5 -7 -8 -22 0
-5 -7 -8 -52 0
-5 -7 -12 -32 0
-5 -7 -12 -38 0
-5 -7 -32 -33 0
-5 -7 -33 -54 0
-5 -8 -17 -38 0
-5 -8 -17 -47 0
-5 -8 -17 -48 0
-5 -8 -17 -54 0
-5 -8 -19 -28 0
-5 -8 -19 -48 0
-5 -8 -23 -32 0
-5 -8 -23 -48 0
-5 -8 -26 -47 0
-5 -8 -28 -39 0
-5 -8 -32 -47 0
-5 -8 -32 -53 0
-5 -8 -34 -47 0
-5 -8 -39 -48 0
-5 -8 -47 -48 0
-5 -8 -47 -52 0
-5 -8 -47 -54 0
-5 -9 -32 -46 0
-5 -9 -44 -46 0
-5 -9 -46 -48 0
-5 -9 -48 -50 0
-5 -10 -11 -54 0
-5 -10 -22 -33 0
-5 -10 -23 -32 0
-5 -10 -23 -48 0
-5 -10 -26 -45 0
-5 -10 -28 -45 0
-5 -10 -32 -33 0
-5 -10 -32 -45 0
-5 -10 -32 -51 0
-5 -10 -38 -45 0
-5 -10 -45 -48 0
-5 -10 -45 -54 0
-5 -10 -48 -51 0
-5 -11 -12 -22 0
-5 -11 -12 -32 0
-5 -11 -12 -38 0
-5 -11 -12 -48 0
-5 -11 -12 -54 0
-5 -12 -15 -48 0
-5 -12 -15 -54 0
-5 -12 -22 -41 0
-5 -12 -26 -41 0
-5 -12 -26 -45 0
-5 -12 -28 -35 0
-5 -12 -28 -41 0
-5 -12 -32 -35 0
-5 -12 -32 -40 0
-5 -12 -32 -41 0
-5 -12 -32 -51 0
-5 -12 -39 -48 0
-5 -12 -39 -52 0
-5 -12 -41 -48 0
-5 -12 -41 -54 0
-5 -12 -44 -51 0
-5 -12 -45 -54 0
-5 -12 -48 -51 0
-5 -13 -16 -45 0
-5 -13 -16 -48 0
-5 -13 -16 -52 0
-5 -13 -18 -48 0
-5 -13 -20 -48 0
-5 -13 -22 -50 0
-5 -13 -27 -28 0
-5 -13 -27 -48 0
-5 -13 -27 -52 0
-5 -13 -28 -50 0
-5 -13 -32 -50 0
-5 -13 -44 -48 0
-5 -13 -44 -50 0
-5 -13 -48 -50 0
-5 -14 -23 -32 0
-5 -14 -23 -48 0
-5 -14 -32 -51 0
-5 -15 -46 -48 0
-5 -15 -46 -54 0
-5 -16 -21 -32 0
-5 -16 -21 -54 0
-5 -16 -23 -32 0
-5 -16 -26 -45 0
-5 -16 -28 -43 0
-5 -16 -28 -45 0
-5 -16 -32 -37 0
-5 -16 -32 -45 0
-5 -16 -32 -51 0
-5 -16 -37 -54 0
-5 -16 -38 -45 0
-5 -16 -39 -48 0
-5 -16 -39 -52 0
-5 -16 -45 -48 0
-5 -16 -45 -54 0
-5 -16 -48 -49 0
-5 -17 -18 -38 0
-5 -17 -24 -47 0
-5 -17 -24 -54 0
-5 -17 -29 -38 0
-5 -18 -37 -48 0
-5 -18 -37 -54 0
-5 -19 -28 -36 0
-5 -19 -28 -46 0
-5 -19 -28 -48 0
-5 -19 -28 -50 0
-5 -19 -32 -36 0
-5 -19 -32 -46 0
-5 -19 -32 -50 0
-5 -19 -36 -38 0
-5 -19 -38 -50 0
-5 -20 -32 -35 0
-5 -21 -26 -40 0
-5 -21 -26 -50 0
-5 -21 -32 -40 0
-5 -21 -32 -50 0
-5 -21 -32 -54 0
-5 -21 -38 -40 0
-5 -21 -40 -48 0
-5 -21 -40 -54 0
-5 -22 -24 -37 0
-5 -22 -33 -40 0
-5 -22 -33 -46 0
-5 -22 -41 -50 0
-5 -23 -30 -32 0
-5 -23 -30 -48 0
-5 -23 -32 -36 0
-5 -23 -32 -40 0
-5 -23 -36 -48 0
-5 -24 -26 -37 0
-5 -24 -26 -47 0
-5 -24 -31 -48 0
-5 -24 -32 -37 0
-5 -24 -32 -47 0
-5 -24 -37 -48 0
-5 -24 -37 -52 0
-5 -24 -37 -54 0
-5 -24 -47 -48 0
-5 -24 -47 -52 0
-5 -25 -26 -36 0
-5 -25 -26 -40 0
-5 -25 -26 -50 0
-5 -25 -28 -50 0
-5 -25 -32 -36 0
-5 -25 -32 -40 0
-5 -25 -32 -50 0
-5 -25 -33 -40 0
-5 -25 -33 -50 0
-5 -25 -34 -50 0
-5 -25 -36 -48 0
-5 -25 -40 -48 0
-5 -25 -48 -50 0
-5 -26 -31 -50 0
-5 -26 -41 -50 0
-5 -26 -45 -50 0
-5 -27 -32 -48 0
-5 -28 -35 -50 0
-5 -28 -39 -48 0
-5 -28 -41 -50 0
-5 -28 -43 -50 0
-5 -29 -35 -50 0
-5 -31 -32 -50 0
-5 -31 -34 -48 0
-5 -31 -48 -50 0
-5 -31 -50 -54 0
-5 -32 -33 -40 0
-5 -32 -33 -46 0
-5 -32 -35 -36 0
-5 -32 -35 -50 0
-5 -32 -37 -54 0
-5 -32 -41 -50 0
-5 -32 -43 -50 0
-5 -34 -35 -50 0
-5 -34 -41 -50 0
-5 -35 -48 -50 0
-5 -35 -50 -52 0
-5 -38 -43 -50 0
-5 -39 -48 -50 0
-5 -39 -50 -52 0
-5 -41 -48 -50 0
-5 -41 -50 -54 0
-5 -43 -48 -50 0
-5 -43 -50 -52 0
-5 -45 -50 -54 0
-6 -7 -12 -43 0
-6 -7 -20 -45 0
-6 -7 -20 -49 0
-6 -7 -22 -29 0
-6 -7 -22 -39 0
-6 -7 -22 -43 0
-6 -7 -22 -45 0
-6 -7 -27 -34 0
-6 -7 -29 -38 0
-6 -7 -33 -48 0
-6 -7 -33 -54 0
-6 -7 -34 -49 0
-6 -7 -35 -48 0
-6 -7 -37 -49 0
-6 -7 -38 -45 0
-6 -7 -44 -49 0
-6 -8 -11 -23 0
-6 -8 -11 -39 0
-6 -8 -13 -52 0
-6 -8 -16 -53 0
-6 -8 -33 -47 0
-6 -8 -45 -47 0
-6 -9 -18 -49 0
-6 -9 -35 -46 0
-6 -9 -43 -52 0
-6 -9 -48 -49 0
-6 -10 -11 -53 0
-6 -10 -13 -45 0
-6 -10 -14 -45 0
-6 -10 -43 -45 0
-6 -11 -12 -54 0
-6 -11 -13 -39 0
-6 -11 -14 -23 0
-6 -11 -16 -29 0
-6 -11 -16 -53 0
-6 -11 -18 -27 0
-6 -11 -20 -29 0
-6 -11 -22 -27 0
-6 -11 -22 -29 0
-6 -11 -22 -39 0
-6 -11 -23 -30 0
-6 -11 -23 -34 0
-6 -11 -23 -35 0
-6 -11 -24 -27 0
-6 -11 -24 -49 0
-6 -11 -27 -40 0
-6 -11 -29 -38 0
-6 -11 -29 -46 0
-6 -11 -29 -48 0
-6 -11 -32 -53 0
-6 -11 -34 -49 0
-6 -11 -39 -46 0
-6 -11 -39 -52 0
-6 -11 -40 -53 0
-6 -11 -48 -49 0
-6 -12 -15 -43 0
-6 -12 -35 -43 0
-6 -13 -18 -49 0
-6 -13 -20 -33 0
-6 -13 -20 -49 0
-6 -13 -20 -53 0
-6 -13 -27 -28 0
-6 -13 -27 -52 0
-6 -13 -28 -33 0
-6 -13 -29 -42 0
-6 -13 -29 -48 0
-6 -13 -33 -40 0
-6 -13 -33 -42 0
-6 -13 -33 -48 0
-6 -13 -33 -52 0
-6 -13 -35 -42 0
-6 -13 -39 -42 0
-6 -13 -39 -52 0
-6 -13 -40 -53 0
-6 -13 -42 -43 0
-6 -13 -42 -45 0
-6 -13 -42 -53 0
-6 -13 -43 -52 0
-6 -13 -44 -49 0
-6 -13 -45 -52 0
-6 -14 -15 -45 0
-6 -14 -45 -47 0
-6 -15 -18 -49 0
-6 -15 -20 -49 0
-6 -15 -23 -40 0
-6 -15 -24 -49 0
-6 -15 -26 -29 0
-6 -15 -27 -40 0
-6 -15 -33 -40 0
-6 -15 -35 -40 0
-6 -15 -40 -43 0
-6 -15 -40 -45 0
-6 -15 -40 -53 0
-6 -15 -48 -49 0
-6 -16 -26 -45 0
-6 -16 -43 -45 0
-6 -17 -24 -49 0
-6 -18 -19 -49 0
-6 -18 -27 -37 0
-6 -18 -27 -49 0
-6 -18 -30 -43 0
-6 -18 -49 -51 0
-6 -19 -28 -33 0
-6 -19 -42 -45 0
-6 -20 -25 -49 0
-6 -20 -29 -49 0
-6 -20 -33 -41 0
-6 -20 -33 -45 0
-6 -20 -33 -49 0
-6 -20 -33 -53 0
-6 -20 -37 -45 0
-6 -20 -37 -49 0
-6 -21 -23 -38 0
-6 -21 -24 -49 0
-6 -21 -27 -44 0
-6 -21 -29 -42 0
-6 -21 -29 -46 0
-6 -21 -30 -49 0
-6 -21 -34 -35 0
-6 -21 -40 -43 0
-6 -21 -48 -49 0
-6 -22 -29 -45 0
-6 -22 -37 -39 0
-6 -23 -30 -49 0
-6 -23 -35 -36 0
-6 -23 -38 -43 0
-6 -23 -38 -45 0
-6 -24 -25 -49 0
-6 -24 -27 -49 0
-6 -24 -35 -49 0
-6 -24 -39 -49 0
-6 -25 -30 -43 0
-6 -25 -40 -43 0
-6 -26 -29 -37 0
-6 -26 -29 -52 0
-6 -26 -35 -45 0
-6 -26 -39 -52 0
-6 -27 -28 -45 0
-6 -27 -30 -49 0
-6 -27 -38 -43 0
-6 -27 -38 -45 0
-6 -27 -44 -49 0
-6 -28 -33 -35 0
-6 -28 -33 -43 0
-6 -28 -33 -45 0
-6 -28 -37 -43 0
-6 -28 -37 -45 0
-6 -29 -32 -37 0
-6 -29 -38 -45 0
-6 -29 -42 -45 0
-6 -29 -48 -49 0
-6 -30 -33 -49 0
-6 -30 -37 -49 0
-6 -30 -43 -49 0
-6 -30 -47 -49 0
-6 -33 -35 -36 0
-6 -33 -40 -53 0
-6 -33 -44 -49 0
-6 -33 -48 -49 0
-6 -34 -35 -49 0
-6 -34 -37 -49 0
-6 -34 -47 -49 0
-6 -34 -49 -51 0
-6 -35 -36 -43 0
-6 -35 -36 -45 0
-6 -35 -36 -53 0
-6 -35 -48 -49 0
-7 -8 -9 -10 0
-7 -8 -9 -12 0
-7 -8 -9 -46 0
-7 -8 -9 -50 0
-7 -8 -9 -52 0
-7 -8 -10 -11 0
-7 -8 -10 -49 0
-7 -8 -11 -12 0
-7 -8 -12 -43 0
-7 -8 -12 -49 0
-7 -8 -22 -39 0
-7 -8 -22 -43 0
-7 -8 -33 -52 0
-7 -8 -39 -52 0
-7 -8 -39 -53 0
-7 -8 -49 -52 0
-7 -9 -10 -12 0
-7 -9 -10 -46 0
-7 -9 -10 -52 0
-7 -9 -14 -46 0
-7 -9 -14 -52 0
-7 -9 -18 -46 0
-7 -9 -18 -52 0
-7 -9 -32 -46 0
-7 -9 -32 -52 0
-7 -9 -38 -46 0
-7 -9 -38 -52 0
-7 -9 -42 -46 0
-7 -9 -42 -52 0
-7 -9 -44 -46 0
-7 -10 -11 -12 0
-7 -10 -11 -48 0
-7 -10 -11 -52 0
-7 -10 -11 -54 0
-7 -10 -12 -43 0
-7 -10 -12 -51 0
-7 -10 -15 -40 0
-7 -10 -15 -50 0
-7 -10 -18 -51 0
-7 -10 -20 -35 0
-7 -10 -20 -41 0
-7 -10 -21 -34 0
-7 -10 -21 -44 0
-7 -10 -21 -48 0
-7 -10 -21 -54 0
-7 -10 -22 -33 0
-7 -10 -22 -39 0
-7 -10 -22 -43 0
-7 -10 -22 -51 0
-7 -10 -23 -32 0
-7 -10 -23 -52 0
-7 -10 -27 -34 0
-7 -10 -32 -33 0
-7 -10 -32 -51 0
-7 -10 -33 -48 0
-7 -10 -33 -54 0
-7 -10 -34 -51 0
-7 -10 -35 -48 0
-7 -10 -38 -51 0
-7 -10 -38 -54 0
-7 -10 -42 -51 0
-7 -10 -48 -53 0
-7 -11 -12 -48 0
-7 -11 -12 -54 0
-7 -11 -14 -48 0
-7 -11 -14 -54 0
-7 -11 -16 -48 0
-7 -11 -16 -54 0
-7 -11 -34 -48 0
-7 -11 -34 -54 0
-7 -11 -38 -48 0
-7 -11 -38 -54 0
-7 -11 -40 -48 0
-7 -11 -40 -54 0
-7 -11 -46 -48 0
-7 -12 -13 -42 0
-7 -12 -14 -41 0
-7 -12 -14 -43 0
-7 -12 -14 -49 0
-7 -12 -19 -48 0
-7 -12 -21 -48 0
-7 -12 -21 -54 0
-7 -12 -32 -43 0
-7 -12 -33 -48 0
-7 -12 -33 -54 0
-7 -12 -38 -43 0
-7 -12 -38 -49 0
-7 -12 -41 -54 0
-7 -12 -42 -43 0
-7 -12 -42 -54 0
-7 -12 -43 -44 0
-7 -13 -18 -37 0
-7 -14 -15 -40 0
-7 -14 -15 -41 0
-7 -14 -17 -44 0
-7 -14 -18 -53 0
-7 -14 -19 -48 0
-7 -14 -20 -41 0
-7 -14 -22 -39 0
-7 -14 -22 -41 0
-7 -14 -22 -48 0
-7 -14 -23 -32 0
-7 -14 -25 -48 0
-7 -14 -27 -34 0
-7 -14 -32 -51 0
-7 -14 -38 -51 0
-7 -14 -41 -44 0
-7 -14 -41 -46 0
-7 -14 -41 -50 0
-7 -14 -41 -52 0
-7 -14 -48 -53 0
-7 -16 -21 -48 0
-7 -16 -21 -54 0
-7 -16 -48 -53 0
-7 -18 -19 -48 0
-7 -18 -20 -53 0
-7 -18 -27 -32 0
-7 -18 -27 -34 0
-7 -18 -27 -52 0
-7 -18 -32 -47 0
-7 -18 -39 -53 0
-7 -18 -42 -53 0
-7 -18 -44 -53 0
-7 -18 -47 -52 0
-7 -19 -28 -48 0
-7 -19 -31 -48 0
-7 -19 -32 -48 0
-7 -19 -34 -48 0
-7 -19 -38 -48 0
-7 -20 -23 -32 0
-7 -20 -25 -48 0
-7 -20 -32 -35 0
-7 -20 -32 -41 0
-7 -20 -32 -45 0
-7 -20 -35 -38 0
-7 -20 -35 -44 0
-7 -20 -38 -41 0
-7 -20 -38 -45 0
-7 -20 -41 -42 0
-7 -20 -41 -54 0
-7 -20 -42 -45 0
-7 -20 -47 -54 0
-7 -20 -48 -53 0
-7 -21 -22 -48 0
-7 -21 -22 -54 0
-7 -21 -26 -48 0
-7 -21 -26 -54 0
-7 -21 -32 -34 0
-7 -21 -32 -44 0
-7 -21 -32 -48 0
-7 -21 -32 -54 0
-7 -21 -34 -42 0
-7 -21 -35 -54 0
-7 -21 -42 -48 0
-7 -21 -42 -54 0
-7 -22 -29 -38 0
-7 -22 -32 -39 0
-7 -22 -32 -43 0
-7 -22 -33 -42 0
-7 -22 -38 -39 0
-7 -22 -38 -43 0
-7 -22 -38 -45 0
-7 -22 -39 -42 0
-7 -22 -41 -54 0
-7 -22 -42 -43 0
-7 -22 -48 -53 0
-7 -23 -30 -32 0
-7 -23 -32 -34 0
-7 -23 -32 -40 0
-7 -24 -25 -48 0
-7 -24 -31 -38 0
-7 -24 -31 -42 0
-7 -25 -26 -48 0
-7 -25 -42 -48 0
-7 -25 -44 -48 0
-7 -25 -46 -48 0
-7 -25 -48 -50 0
-7 -27 -32 -34 0
-7 -27 -32 -52 0
-7 -27 -34 -42 0
-7 -28 -35 -48 0
-7 -30 -33 -48 0
-7 -30 -33 -54 0
-7 -30 -47 -54 0
-7 -31 -34 -42 0
-7 -31 -38 -52 0
-7 -32 -35 -36 0
-7 -32 -35 -48 0
-7 -32 -47 -52 0
-7 -32 -47 -54 0
-7 -32 -48 -53 0
-7 -33 -34 -48 0
-7 -33 -34 -54 0
-7 -33 -36 -48 0
-7 -33 -36 -54 0
-7 -33 -42 -48 0
-7 -33 -46 -48 0
-7 -33 -48 -52 0
-7 -33 -52 -54 0
-7 -34 -35 -48 0
-7 -34 -47 -54 0
-7 -35 -36 -38 0
-7 -35 -38 -48 0
-7 -35 -44 -48 0
-7 -35 -48 -50 0
-7 -38 -48 -52 0
-7 -39 -48 -53 0
-7 -40 -48 -53 0
-7 -41 -44 -54 0
-7 -41 -50 -54 0
-7 -42 -48 -53 0
-7 -44 -48 -53 0
-7 -46 -48 -53 0
-7 -47 -52 -54 0
-8 -9 -10 -11 0
-8 -9 -10 -45 0
-8 -9 -10 -53 0
-8 -9 -11 -12 0
-8 -9 -11 -44 0
-8 -9 -11 -50 0
-8 -9 -12 -51 0
-8 -9 -16 -53 0
-8 -9 -17 -38 0
-8 -9 -17 -54 0
-8 -9 -19 -36 0
-8 -9 -19 -50 0
-8 -9 -20 -35 0
-8 -9 -20 -41 0
-8 -9 -20 -45 0
-8 -9 -20 -53 0
-8 -9 -23 -32 0
-8 -9 -23 -46 0
-8 -9 -23 -48 0
-8 -9 -23 -52 0
-8 -9 -24 -31 0
-8 -9 -24 -37 0
-8 -9 -29 -32 0
-8 -9 -31 -46 0
-8 -9 -32 -53 0
-8 -9 -35 -36 0
-8 -9 -35 -46 0
-8 -9 -35 -52 0
-8 -9 -36 -53 0
-8 -9 -40 -53 0
-8 -9 -42 -52 0
-8 -9 -42 -53 0
-8 -9 -46 -49 0
-8 -10 -11 -47 0
-8 -10 -11 -53 0
-8 -10 -15 -47 0
-8 -10 -15 -53 0
-8 -10 -17 -45 0
-8 -10 -17 -49 0
-8 -10 -31 -45 0
-8 -10 -33 -47 0
-8 -10 -33 -53 0
-8 -10 -37 -47 0
-8 -10 -37 -53 0
-8 -10 -39 -53 0
-8 -10 -41 -45 0
-8 -10 -43 -45 0
-8 -10 -49 -53 0
-8 -11 -12 -47 0
-8 -11 -12 -49 0
-8 -11 -16 -39 0
-8 -11 -16 -47 0
-8 -11 -16 -53 0
-8 -11 -17 -38 0
-8 -11 -19 -44 0
-8 -11 -19 -50 0
-8 -11 -23 -44 0
-8 -11 -31 -44 0
-8 -11 -31 -50 0
-8 -11 -34 -47 0
-8 -11 -38 -47 0
-8 -11 -38 -50 0
-8 -11 -39 -50 0
-8 -11 -40 -47 0
-8 -11 -40 -53 0
-8 -11 -46 -47 0
-8 -12 -13 -47 0
-8 -12 -13 -51 0
-8 -12 -17 -43 0
-8 -12 -17 -49 0
-8 -12 -33 -47 0
-8 -12 -35 -43 0
-8 -12 -35 -49 0
-8 -12 -37 -47 0
-8 -12 -39 -43 0
-8 -12 -39 -49 0
-8 -12 -41 -49 0
-8 -12 -45 -47 0
-8 -12 -49 -51 0
-8 -13 -16 -53 0
-8 -13 -17 -44 0
-8 -13 -17 -54 0
-8 -13 -18 -47 0
-8 -13 -20 -35 0
-8 -13 -20 -47 0
-8 -13 -20 -53 0
-8 -13 -22 -47 0
-8 -13 -26 -47 0
-8 -13 -30 -47 0
-8 -13 -44 -47 0
-8 -13 -44 -53 0
-8 -13 -47 -50 0
-8 -13 -47 -54 0
-8 -14 -41 -49 0
-8 -14 -49 -53 0
-8 -15 -16 -39 0
-8 -15 -16 -47 0
-8 -15 -16 -53 0
-8 -15 -20 -35 0
-8 -15 -20 -47 0
-8 -15 -24 -31 0
-8 -15 -30 -47 0
-8 -15 -47 -48 0
-8 -15 -47 -52 0
-8 -15 -47 -54 0
-8 -16 -17 -39 0
-8 -16 -19 -39 0
-8 -16 -21 -39 0
-8 -16 -24 -39 0
-8 -16 -29 -39 0
-8 -16 -37 -53 0
-8 -16 -39 -43 0
-8 -16 -39 -53 0
-8 -17 -30 -33 0
-8 -17 -30 -49 0
-8 -17 -33 -46 0
-8 -17 -37 -38 0
-8 -17 -37 -54 0
-8 -17 -38 -39 0
-8 -17 -38 -43 0
-8 -17 -38 -49 0
-8 -17 -39 -54 0
-8 -17 -46 -49 0
-8 -17 -49 -54 0
-8 -18 -23 -43 0
-8 -19 -26 -39 0
-8 -19 -28 -39 0
-8 -19 -33 -36 0
-8 -19 -33 -47 0
-8 -19 -36 -39 0
-8 -19 -36 -45 0
-8 -19 -36 -49 0
-8 -19 -39 -48 0
-8 -19 -46 -49 0
-8 -20 -35 -37 0
-8 -20 -35 -39 0
-8 -20 -35 -43 0
-8 -20 -35 -45 0
-8 -20 -35 -49 0
-8 -20 -37 -47 0
-8 -20 -37 -53 0
-8 -20 -39 -41 0
-8 -20 -39 -53 0
-8 -21 -26 -39 0
-8 -22 -23 -39 0
-8 -22 -23 -43 0
-8 -22 -31 -39 0
-8 -22 -36 -39 0
-8 -22 -41 -43 0
-8 -23 -32 -39 0
-8 -23 -32 -43 0
-8 -23 -32 -49 0
-8 -23 -38 -39 0
-8 -24 -31 -37 0
-8 -24 -31 -39 0
-8 -24 -31 -43 0
-8 -24 -31 -49 0
-8 -24 -35 -37 0
-8 -24 -37 -41 0
-8 -25 -30 -39 0
-8 -25 -30 -43 0
-8 -25 -36 -39 0
-8 -26 -29 -49 0
-8 -26 -31 -39 0
-8 -26 -35 -49 0
-8 -26 -39 -41 0
-8 -26 -39 -45 0
-8 -26 -39 -49 0
-8 -26 -45 -47 0
-8 -26 -49 -53 0
-8 -27 -28 -39 0
-8 -27 -28 -49 0
-8 -27 -38 -39 0
-8 -28 -39 -51 0
-8 -29 -32 -49 0
-8 -30 -31 -33 0
-8 -30 -31 -39 0
-8 -30 -33 -41 0
-8 -30 -33 -47 0
-8 -30 -33 -49 0
-8 -30 -39 -41 0
-8 -30 -45 -47 0
-8 -32 -39 -53 0
-8 -32 -43 -53 0
-8 -32 -49 -53 0
-8 -33 -34 -47 0
-8 -33 -35 -36 0
-8 -33 -36 -47 0
-8 -33 -36 -53 0
-8 -33 -40 -47 0
-8 -33 -40 -53 0
-8 -33 -42 -47 0
-8 -33 -46 -49 0
-8 -33 -47 -52 0
-8 -34 -42 -47 0
-8 -34 -45 -47 0
-8 -35 -36 -39 0
-8 -35 -36 -43 0
-8 -35 -36 -49 0
-8 -36 -39 -53 0
-8 -36 -45 -47 0
-8 -36 -49 -53 0
-8 -37 -47 -54 0
-8 -39 -40 -53 0
-8 -40 -49 -53 0
-8 -45 -47 -54 0
-8 -46 -49 -53 0
-9 -10 -11 -12 0
-9 -10 -12 -45 0
-9 -10 -12 -51 0
-9 -10 -15 -40 0
-9 -10 -18 -37 0
-9 -10 -18 -45 0
-9 -10 -18 -51 0
-9 -10 -21 -46 0
-9 -10 -23 -46 0
-9 -10 -23 -52 0
-9 -10 -35 -46 0
-9 -10 -35 -52 0
-9 -10 -36 -45 0
-9 -10 -37 -52 0
-9 -10 -40 -45 0
-9 -10 -40 -52 0
-9 -10 -42 -45 0
-9 -10 -42 -51 0
-9 -10 -45 -48 0
-9 -11 -12 -44 0
-9 -11 -12 -50 0
-9 -11 -12 -54 0
-9 -11 -16 -44 0
-9 -11 -16 -50 0
-9 -11 -18 -44 0
-9 -11 -18 -50 0
-9 -11 -36 -44 0
-9 -11 -36 -50 0
-9 -11 -40 -44 0
-9 -11 -40 -50 0
-9 -11 -42 -44 0
-9 -11 -42 -50 0
-9 -11 -44 -48 0
-9 -12 -20 -41 0
-9 -12 -20 -45 0
-9 -12 -35 -50 0
-9 -12 -41 -49 0
-9 -12 -41 -50 0
-9 -12 -50 -51 0
-9 -13 -18 -48 0
-9 -14 -23 -46 0
-9 -14 -23 -52 0
-9 -14 -46 -49 0
-9 -15 -16 -39 0
-9 -16 -18 -49 0
-9 -16 -21 -46 0
-9 -16 -24 -49 0
-9 -16 -29 -32 0
-9 -16 -29 -36 0
-9 -16 -29 -50 0
-9 -16 -36 -43 0
-9 -16 -40 -49 0
-9 -16 -41 -49 0
-9 -16 -43 -50 0
-9 -16 -48 -49 0
-9 -17 -18 -37 0
-9 -17 -18 -38 0
-9 -18 -19 -36 0
-9 -18 -20 -37 0
-9 -18 -20 -41 0
-9 -18 -20 -46 0
-9 -18 -21 -46 0
-9 -18 -24 -37 0
-9 -18 -27 -46 0
-9 -18 -29 -32 0
-9 -18 -36 -53 0
-9 -18 -37 -44 0
-9 -18 -37 -48 0
-9 -18 -37 -50 0
-9 -18 -37 -54 0
-9 -18 -42 -53 0
-9 -18 -46 -49 0
-9 -19 -24 -36 0
-9 -19 -28 -36 0
-9 -19 -32 -36 0
-9 -19 -36 -38 0
-9 -20 -23 -46 0
-9 -20 -23 -52 0
-9 -20 -25 -42 0
-9 -20 -35 -40 0
-9 -20 -36 -41 0
-9 -20 -36 -45 0
-9 -20 -37 -52 0
-9 -20 -40 -41 0
-9 -20 -40 -45 0
-9 -20 -41 -42 0
-9 -20 -42 -45 0
-9 -20 -42 -47 0
-9 -20 -46 -49 0
-9 -21 -26 -46 0
-9 -21 -32 -46 0
-9 -21 -33 -46 0
-9 -21 -36 -46 0
-9 -21 -42 -46 0
-9 -22 -27 -46 0
-9 -22 -33 -40 0
-9 -22 -33 -42 0
-9 -23 -30 -46 0
-9 -23 -30 -52 0
-9 -23 -31 -52 0
-9 -23 -32 -36 0
-9 -23 -32 -40 0
-9 -23 -36 -46 0
-9 -23 -36 -48 0
-9 -23 -36 -52 0
-9 -23 -40 -46 0
-9 -23 -40 -52 0
-9 -24 -27 -46 0
-9 -24 -31 -36 0
-9 -24 -31 -42 0
-9 -24 -31 -48 0
-9 -24 -36 -37 0
-9 -24 -36 -47 0
-9 -24 -37 -40 0
-9 -24 -37 -42 0
-9 -24 -37 -52 0
-9 -24 -40 -47 0
-9 -24 -42 -47 0
-9 -24 -43 -52 0
-9 -24 -46 -49 0
-9 -26 -31 -46 0
-9 -27 -30 -46 0
-9 -27 -40 -46 0
-9 -27 -44 -46 0
-9 -27 -46 -48 0
-9 -27 -46 -54 0
-9 -28 -35 -46 0
-9 -28 -35 -52 0
-9 -28 -43 -52 0
-9 -29 -32 -36 0
-9 -29 -32 -40 0
-9 -29 -36 -50 0
-9 -31 -32 -46 0
-9 -31 -34 -36 0
-9 -31 -34 -42 0
-9 -31 -36 -46 0
-9 -31 -42 -46 0
-9 -31 -46 -48 0
-9 -31 -46 -54 0
-9 -32 -33 -40 0
-9 -32 -35 -46 0
-9 -32 -35 -52 0
-9 -32 -43 -52 0
-9 -33 -42 -50 0
-9 -34 -35 -46 0
-9 -34 -35 -52 0
-9 -35 -40 -46 0
-9 -35 -44 -46 0
-9 -35 -46 -50 0
-9 -35 -50 -52 0
-9 -36 -43 -50 0
-9 -36 -43 -52 0
-9 -36 -46 -49 0
-9 -37 -48 -52 0
-9 -37 -52 -54 0
-9 -38 -46 -49 0
-9 -40 -46 -49 0
-9 -41 -46 -49 0
-9 -42 -46 -50 0
-9 -43 -50 -52 0
-9 -44 -46 -49 0
-9 -46 -48 -49 0
-10 -11 -12 -53 0
-10 -11 -24 -37 0
-10 -11 -24 -47 0
-10 -11 -31 -54 0
-10 -11 -37 -51 0
-10 -11 -37 -54 0
-10 -11 -53 -54 0
-10 -12 -13 -45 0
-10 -12 -13 -51 0
-10 -12 -15 -43 0
-10 -12 -15 -53 0
-10 -12 -31 -45 0
-10 -12 -31 -51 0
-10 -12 -35 -43 0
-10 -12 -37 -51 0
-10 -12 -39 -43 0
-10 -12 -41 -45 0
-10 -12 -41 -51 0
-10 -12 -43 -47 0
-10 -12 -51 -53 0
-10 -13 -18 -37 0
-10 -13 -18 -45 0
-10 -13 -18 -51 0
-10 -13 -20 -35 0
-10 -13 -22 -33 0
-10 -13 -22 -45 0
-10 -13 -26 -45 0
-10 -13 -44 -45 0
-10 -13 -45 -50 0
-10 -13 -45 -54 0
-10 -14 -17 -45 0
-10 -14 -21 -47 0
-10 -15 -17 -46 0
-10 -15 -17 -50 0
-10 -15 -18 -37 0
-10 -15 -26 -31 0
-10 -15 -26 -53 0
-10 -15 -31 -48 0
-10 -15 -37 -40 0
-10 -15 -37 -50 0
-10 -15 -40 -41 0
-10 -15 -40 -47 0
-10 -15 -40 -53 0
-10 -15 -41 -50 0
-10 -15 -48 -53 0
-10 -15 -50 -53 0
-10 -16 -39 -53 0
-10 -16 -51 -53 0
-10 -17 -18 -51 0
-10 -17 -22 -33 0
-10 -17 -22 -45 0
-10 -17 -22 -51 0
-10 -17 -24 -45 0
-10 -17 -26 -45 0
-10 -17 -28 -45 0
-10 -17 -45 -46 0
-10 -17 -45 -50 0
-10 -17 -45 -52 0
-10 -17 -46 -51 0
-10 -18 -19 -37 0
-10 -18 -20 -37 0
-10 -18 -23 -37 0
-10 -18 -27 -37 0
-10 -18 -37 -47 0
-10 -18 -37 -51 0
-10 -18 -41 -51 0
-10 -19 -28 -37 0
-10 -20 -33 -41 0
-10 -20 -35 -37 0
-10 -20 -35 -41 0
-10 -20 -35 -47 0
-10 -20 -35 -53 0
-10 -20 -39 -41 0
-10 -21 -24 -37 0
-10 -21 -24 -47 0
-10 -21 -34 -37 0
-10 -21 -34 -47 0
-10 -21 -34 -53 0
-10 -21 -37 -40 0
-10 -22 -33 -37 0
-10 -22 -33 -41 0
-10 -22 -33 -43 0
-10 -22 -33 -47 0
-10 -22 -33 -53 0
-10 -22 -37 -39 0
-10 -22 -37 -51 0
-10 -22 -41 -45 0
-10 -22 -41 -51 0
-10 -23 -28 -37 0
-10 -23 -30 -37 0
-10 -23 -31 -32 0
-10 -23 -31 -45 0
-10 -23 -32 -37 0
-10 -23 -32 -43 0
-10 -23 -32 -53 0
-10 -23 -37 -44 0
-10 -23 -48 -53 0
-10 -24 -32 -37 0
-10 -24 -35 -37 0
-10 -24 -39 -47 0
-10 -25 -30 -37 0
-10 -25 -30 -53 0
-10 -25 -37 -40 0
-10 -26 -29 -37 0
-10 -26 -29 -47 0
-10 -26 -31 -35 0
-10 -26 -31 -39 0
-10 -26 -31 -45 0
-10 -26 -31 -53 0
-10 -26 -35 -37 0
-10 -26 -37 -39 0
-10 -26 -43 -45 0
-10 -27 -28 -53 0
-10 -27 -34 -53 0
-10 -28 -33 -53 0
-10 -28 -35 -37 0
-10 -28 -37 -39 0
-10 -28 -37 -43 0
-10 -28 -37 -53 0
-10 -28 -43 -45 0
-10 -28 -51 -53 0
-10 -29 -32 -37 0
-10 -30 -37 -49 0
-10 -31 -32 -33 0
-10 -31 -32 -45 0
-10 -31 -32 -51 0
-10 -31 -36 -45 0
-10 -31 -38 -45 0
-10 -31 -42 -45 0
-10 -31 -42 -51 0
-10 -31 -45 -54 0
-10 -31 -48 -53 0
-10 -32 -33 -37 0
-10 -32 -33 -47 0
-10 -32 -33 -53 0
-10 -32 -37 -51 0
-10 -32 -43 -45 0
-10 -32 -51 -53 0
-10 -34 -37 -51 0
-10 -34 -47 -51 0
-10 -34 -51 -53 0
-10 -36 -38 -45 0
-10 -36 -43 -45 0
-10 -37 -42 -51 0
-10 -41 -45 -50 0
-10 -42 -51 -53 0
-10 -43 -45 -50 0
-10 -48 -51 -53 0
-11 -12 -13 -42 0
-11 -12 -13 -52 0
-11 -12 -14 -49 0
-11 -12 -19 -36 0
-11 -12 -19 -44 0
-11 -12 -19 -46 0
-11 -12 -19 -50 0
-11 -12 -21 -34 0
-11 -12 -21 -54 0
-11 -12 -22 -33 0
-11 -12 -22 -39 0
-11 -12 -24 -31 0
-11 -12 -24 -37 0
-11 -12 -24 -47 0
-11 -12 -24 -49 0
-11 -12 -25 -36 0
-11 -12 -31 -34 0
-11 -12 -31 -44 0
-11 -12 -31 -50 0
-11 -12 -33 -44 0
-11 -12 -34 -49 0
-11 -12 -36 -49 0
-11 -12 -38 -49 0
-11 -12 -40 -49 0
-11 -12 -40 -50 0
-11 -12 -44 -51 0
-11 -13 -16 -39 0
-11 -13 -16 -42 0
-11 -14 -16 -51 0
-11 -14 -17 -41 0
-11 -14 -22 -51 0
-11 -14 -23 -44 0
-11 -14 -25 -34 0
-11 -14 -25 -36 0
-11 -14 -25 -54 0
-11 -14 -34 -45 0
-11 -14 -37 -51 0
-11 -14 -38 -51 0
-11 -14 -45 -54 0
-11 -14 -46 -51 0
-11 -15 -16 -46 0
-11 -16 -21 -34 0
-11 -16 -22 -39 0
-11 -16 -23 -44 0
-11 -16 -24 -37 0
-11 -16 -24 -39 0
-11 -16 -24 -44 0
-11 -16 -25 -36 0
-11 -16 -29 -44 0
-11 -16 -34 -49 0
-11 -16 -39 -46 0
-11 -16 -39 -48 0
-11 -16 -39 -52 0
-11 -16 -39 -54 0
-11 -16 -40 -49 0
-11 -16 -44 -51 0
-11 -18 -19 -44 0
-11 -18 -19 -50 0
-11 -18 -44 -51 0
-11 -19 -24 -44 0
-11 -19 -24 -50 0
-11 -19 -28 -44 0
-11 -19 -28 -50 0
-11 -19 -33 -50 0
-11 -19 -34 -36 0
-11 -19 -34 -44 0
-11 -19 -34 -46 0
-11 -19 -34 -50 0
-11 -19 -36 -38 0
-11 -19 -38 -44 0
-11 -19 -38 -50 0
-11 -20 -29 -44 0
-11 -20 -35 -38 0
-11 -20 -35 -40 0
-11 -21 -22 -34 0
-11 -21 -26 -34 0
-11 -21 -34 -36 0
-11 -21 -34 -42 0
-11 -22 -29 -44 0
-11 -22 -33 -34 0
-11 -22 -33 -40 0
-11 -22 -33 -46 0
-11 -22 -34 -39 0
-11 -22 -34 -43 0
-11 -22 -38 -39 0
-11 -22 -38 -43 0
-11 -22 -39 -40 0
-11 -22 -39 -50 0
-11 -22 -40 -43 0
-11 -22 -44 -51 0
-11 -22 -45 -50 0
-11 -23 -30 -44 0
-11 -23 -34 -44 0
-11 -23 -35 -44 0
-11 -23 -36 -44 0
-11 -23 -40 -44 0
-11 -24 -27 -40 0
-11 -24 -31 -38 0
-11 -24 -34 -37 0
-11 -24 -34 -47 0
-11 -24 -37 -38 0
-11 -24 -37 -40 0
-11 -24 -38 -47 0
-11 -24 -39 -50 0
-11 -24 -40 -43 0
-11 -24 -40 -47 0
-11 -24 -44 -51 0
-11 -25 -34 -36 0
-11 -25 -34 -54 0
-11 -25 -36 -38 0
-11 -26 -31 -44 0
-11 -26 -31 -50 0
-11 -26 -45 -50 0
-11 -28 -29 -44 0
-11 -29 -38 -44 0
-11 -29 -44 -46 0
-11 -29 -44 -48 0
-11 -29 -44 -52 0
-11 -30 -33 -44 0
-11 -31 -32 -44 0
-11 -31 -32 -50 0
-11 -31 -36 -44 0
-11 -31 -36 -50 0
-11 -31 -38 -44 0
-11 -31 -44 -48 0
-11 -31 -44 -54 0
-11 -31 -50 -54 0
-11 -32 -33 -34 0
-11 -32 -33 -40 0
-11 -33 -34 -44 0
-11 -33 -36 -44 0
-11 -33 -40 -44 0
-11 -33 -44 -46 0
-11 -33 -44 -52 0
-11 -34 -44 -51 0
-11 -34 -45 -50 0
-11 -34 -45 -54 0
-11 -35 -36 -38 0
-11 -35 -40 -54 0
-11 -36 -45 -50 0
-11 -37 -44 -51 0
-11 -38 -44 -51 0
-11 -39 -46 -50 0
-11 -39 -50 -52 0
-11 -40 -44 -54 0
-11 -42 -44 -51 0
-11 -44 -46 -51 0
-11 -44 -48 -51 0
-11 -45 -50 -54 0
-12 -13 -14 -41 0
-12 -13 -15 -48 0
-12 -13 -15 -52 0
-12 -13 -28 -35 0
-12 -13 -28 -51 0
-12 -13 -35 -44 0
-12 -13 -39 -42 0
-12 -13 -39 -52 0
-12 -13 -41 -42 0
-12 -13 -41 -52 0
-12 -13 -42 -45 0
-12 -13 -42 -51 0
-12 -13 -44 -51 0
-12 -13 -51 -52 0
-12 -14 -15 -49 0
-12 -14 -17 -41 0
-12 -14 -17 -43 0
-12 -14 -17 -49 0
-12 -14 -21 -41 0
-12 -14 -22 -41 0
-12 -14 -23 -41 0
-12 -14 -25 -41 0
-12 -14 -39 -49 0
-12 -14 -41 -45 0
-12 -14 -41 -49 0
-12 -15 -16 -43 0
-12 -15 -20 -43 0
-12 -15 -24 -31 0
-12 -15 -24 -43 0
-12 -15 -24 -49 0
-12 -15 -28 -43 0
-12 -15 -30 -43 0
-12 -15 -43 -48 0
-12 -15 -43 -52 0
-12 -15 -43 -54 0
-12 -15 -48 -49 0
-12 -16 -19 -45 0
-12 -17 -22 -33 0
-12 -17 -24 -31 0
-12 -17 -24 -43 0
-12 -17 -28 -43 0
-12 -17 -43 -46 0
-12 -17 -43 -50 0
-12 -17 -43 -52 0
-12 -18 -37 -51 0
-12 -18 -49 -51 0
-12 -19 -20 -41 0
-12 -19 -20 -45 0
-12 -19 -36 -41 0
-12 -19 -36 -45 0
-12 -19 -36 -51 0
-12 -19 -41 -42 0
-12 -20 -33 -41 0
-12 -20 -34 -41 0
-12 -20 -37 -45 0
-12 -21 -26 -41 0
-12 -21 -30 -41 0
-12 -21 -34 -35 0
-12 -21 -34 -41 0
-12 -21 -34 -47 0
-12 -21 -34 -51 0
-12 -21 -35 -43 0
-12 -21 -41 -46 0
-12 -21 -44 -51 0
-12 -22 -31 -39 0
-12 -22 -33 -39 0
-12 -22 -33 -41 0
-12 -22 -33 -45 0
-12 -22 -33 -51 0
-12 -22 -37 -39 0
-12 -23 -30 -41 0
-12 -24 -31 -39 0
-12 -24 -31 -41 0
-12 -24 -31 -45 0
-12 -24 -31 -47 0
-12 -24 -31 -51 0
-12 -24 -37 -41 0
-12 -24 -39 -43 0
-12 -24 -39 -49 0
-12 -24 -41 -49 0
-12 -25 -30 -51 0
-12 -25 -36 -51 0
-12 -26 -29 -41 0
-12 -26 -29 -51 0
-12 -26 -41 -53 0
-12 -27 -28 -41 0
-12 -27 -28 -45 0
-12 -27 -34 -41 0
-12 -28 -33 -35 0
-12 -28 -33 -41 0
-12 -28 -35 -37 0
-12 -28 -35 -43 0
-12 -28 -35 -51 0
-12 -28 -37 -41 0
-12 -28 -43 -47 0
-12 -29 -41 -42 0
-12 -30 -31 -51 0
-12 -30 -33 -41 0
-12 -30 -37 -41 0
-12 -30 -41 -47 0
-12 -30 -41 -51 0
-12 -30 -43 -47 0
-12 -30 -49 -51 0
-12 -31 -34 -35 0
-12 -31 -34 -41 0
-12 -31 -34 -45 0
-12 -31 -34 -51 0
-12 -32 -35 -43 0
-12 -32 -40 -43 0
-12 -32 -43 -47 0
-12 -34 -35 -43 0
-12 -34 -35 -49 0
-12 -34 -41 -49 0
-12 -34 -43 -47 0
-12 -34 -49 -51 0
-12 -35 -38 -43 0
-12 -35 -38 -49 0
-12 -35 -40 -43 0
-12 -35 -43 -50 0
-12 -35 -44 -51 0
-12 -36 -41 -49 0
-12 -36 -45 -49 0
-12 -36 -49 -51 0
-12 -38 -41 -49 0
-12 -38 -49 -51 0
-12 -39 -43 -52 0
-12 -43 -47 -52 0
-12 -44 -49 -51 0
-13 -14 -15 -16 0
-13 -14 -15 -18 0
-13 -14 -15 -50 0
-13 -14 -16 -17 0
-13 -14 -17 -18 0
-13 -14 -17 -44 0
-13 -14 -18 -37 0
-13 -14 -18 -41 0
-13 -14 -18 -47 0
-13 -14 -18 -53 0
-13 -14 -20 -47 0
-13 -14 -22 -41 0
-13 -14 -26 -47 0
-13 -14 -30 -47 0
-13 -14 -39 -47 0
-13 -14 -41 -44 0
-13 -14 -41 -50 0
-13 -14 -44 -47 0
-13 -14 -47 -50 0
-13 -14 -47 -54 0
-13 -15 -16 -18 0
-13 -15 -16 -42 0
-13 -15 -16 -48 0
-13 -15 -16 -52 0
-13 -15 -18 -48 0
-13 -15 -20 -48 0
-13 -15 -20 -50 0
-13 -15 -26 -48 0
-13 -15 -28 -50 0
-13 -15 -42 -54 0
-13 -15 -44 -48 0
-13 -15 -48 -54 0
-13 -15 -52 -54 0
-13 -16 -17 -18 0
-13 -16 -17 -52 0
-13 -16 -18 -49 0
-13 -16 -19 -42 0
-13 -16 -21 -40 0
-13 -16 -21 -42 0
-13 -16 -21 -44 0
-13 -16 -21 -48 0
-13 -16 -21 -52 0
-13 -16 -21 -54 0
-13 -16 -25 -42 0
-13 -16 -29 -42 0
-13 -16 -29 -48 0
-13 -16 -29 -52 0
-13 -16 -40 -49 0
-13 -16 -42 -53 0
-13 -16 -48 -53 0
-13 -16 -52 -53 0
-13 -17 -18 -38 0
-13 -17 -18 -44 0
-13 -17 -18 -54 0
-13 -17 -22 -44 0
-13 -17 -22 -52 0
-13 -17 -28 -44 0
-13 -17 -30 -52 0
-13 -17 -38 -50 0
-13 -17 -44 -46 0
-13 -17 -44 -50 0
-13 -17 -50 -54 0
-13 -18 -19 -40 0
-13 -18 -19 -48 0
-13 -18 -20 -37 0
-13 -18 -20 -53 0
-13 -18 -21 -40 0
-13 -18 -25 -40 0
-13 -18 -27 -28 0
-13 -18 -28 -47 0
-13 -18 -29 -48 0
-13 -18 -37 -44 0
-13 -18 -37 -50 0
-13 -18 -37 -54 0
-13 -18 -44 -53 0
-13 -19 -26 -42 0
-13 -20 -21 -40 0
-13 -20 -25 -40 0
-13 -20 -25 -48 0
-13 -20 -27 -28 0
-13 -20 -29 -48 0
-13 -20 -33 -40 0
-13 -20 -35 -40 0
-13 -20 -35 -44 0
-13 -20 -40 -53 0
-13 -20 -48 -53 0
-13 -21 -26 -40 0
-13 -21 -26 -42 0
-13 -21 -26 -44 0
-13 -21 -26 -48 0
-13 -21 -28 -44 0
-13 -21 -30 -40 0
-13 -21 -30 -42 0
-13 -21 -40 -44 0
-13 -21 -40 -50 0
-13 -21 -40 -54 0
-13 -21 -42 -54 0
-13 -22 -27 -28 0
-13 -22 -27 -52 0
-13 -22 -29 -48 0
-13 -22 -29 -52 0
-13 -22 -31 -52 0
-13 -22 -33 -40 0
-13 -22 -33 -50 0
-13 -23 -30 -42 0
-13 -23 -30 -52 0
-13 -25 -26 -42 0
-13 -25 -34 -44 0
-13 -25 -40 -44 0
-13 -25 -40 -50 0
-13 -25 -44 -46 0
-13 -25 -44 -48 0
-13 -25 -48 -50 0
-13 -26 -27 -28 0
-13 -26 -31 -42 0
-13 -26 -42 -45 0
-13 -26 -42 -51 0
-13 -27 -28 -30 0
-13 -27 -28 -44 0
-13 -27 -28 -50 0
-13 -27 -28 -54 0
-13 -27 -30 -42 0
-13 -27 -30 -52 0
-13 -27 -42 -54 0
-13 -27 -52 -54 0
-13 -28 -30 -33 0
-13 -28 -33 -50 0
-13 -28 -35 -44 0
-13 -28 -37 -44 0
-13 -28 -37 -54 0
-13 -28 -44 -51 0
-13 -29 -30 -42 0
-13 -29 -44 -48 0
-13 -29 -48 -50 0
-13 -30 -33 -42 0
-13 -30 -33 -48 0
-13 -30 -33 -52 0
-13 -30 -39 -42 0
-13 -30 -39 -52 0
-13 -30 -42 -47 0
-13 -30 -42 -51 0
-13 -30 -42 -53 0
-13 -30 -47 -52 0
-13 -31 -42 -54 0
-13 -31 -52 -54 0
-13 -32 -33 -50 0
-13 -33 -42 -54 0
-13 -33 -48 -50 0
-13 -33 -52 -54 0
-13 -35 -36 -44 0
-13 -35 -44 -46 0
-13 -35 -44 -48 0
-13 -35 -48 -50 0
-13 -37 -42 -54 0
-13 -37 -52 -54 0
-13 -39 -47 -52 0
-13 -40 -48 -50 0
-13 -42 -45 -54 0
-13 -44 -48 -53 0
-13 -45 -52 -54 0
-14 -15 -16 -17 0
-14 -15 -16 -51 0
-14 -15 -17 -18 0
-14 -15 -17 -40 0
-14 -15 -17 -46 0
-14 -15 -17 -50 0
-14 -15 -21 -40 0
-14 -15 -23 -38 0
-14 -15 -23 -40 0
-14 -15 -23 -46 0
-14 -15 -23 -48 0
-14 -15 -23 -50 0
-14 -15 -23 -52 0
-14 -15 -25 -40 0
-14 -15 -25 -46 0
-14 -15 -25 -50 0
-14 -15 -27 -40 0
-14 -15 -38 -51 0
-14 -15 -40 -49 0
-14 -15 -46 -49 0
-14 -15 -49 -50 0
-14 -16 -17 -39 0
-14 -16 -17 -41 0
-14 -16 -17 -45 0
-14 -16 -17 -51 0
-14 -16 -21 -39 0
-14 -16 -21 -41 0
-14 -16 -21 -47 0
-14 -16 -21 -51 0
-14 -16 -25 -39 0
-14 -16 -25 -41 0
-14 -16 -25 -45 0
-14 -16 -29 -51 0
-14 -16 -51 -53 0
-14 -17 -18 -53 0
-14 -17 -19 -42 0
-14 -17 -22 -41 0
-14 -17 -22 -51 0
-14 -17 -23 -42 0
-14 -17 -23 -44 0
-14 -17 -25 -30 0
-14 -17 -27 -44 0
-14 -17 -29 -42 0
-14 -17 -30 -45 0
-14 -17 -41 -46 0
-14 -17 -41 -50 0
-14 -17 -41 -52 0
-14 -17 -46 -51 0
-14 -18 -23 -37 0
-14 -18 -23 -41 0
-14 -18 -23 -43 0
-14 -18 -23 -53 0
-14 -18 -25 -53 0
-14 -18 -27 -37 0
-14 -18 -27 -41 0
-14 -18 -27 -47 0
-14 -18 -49 -53 0
-14 -19 -23 -42 0
-14 -19 -28 -51 0
-14 -19 -36 -45 0
-14 -19 -36 -49 0
-14 -20 -26 -45 0
-14 -20 -37 -45 0
-14 -21 -22 -41 0
-14 -21 -26 -39 0
-14 -21 -26 -47 0
-14 -21 -37 -40 0
-14 -21 -40 -47 0
-14 -21 -42 -47 0
-14 -22 -23 -39 0
-14 -22 -23 -41 0
-14 -22 -23 -43 0
-14 -22 -23 -48 0
-14 -22 -23 -51 0
-14 -22 -25 -41 0
-14 -22 -27 -41 0
-14 -22 -27 -47 0
-14 -22 -27 -51 0
-14 -22 -29 -51 0
-14 -22 -30 -51 0
-14 -22 -41 -45 0
-14 -22 -41 -49 0
-14 -22 -41 -51 0
-14 -23 -25 -40 0
-14 -23 -25 -48 0
-14 -23 -25 -51 0
-14 -23 -27 -28 0
-14 -23 -28 -37 0
-14 -23 -28 -51 0
-14 -23 -29 -48 0
-14 -23 -30 -45 0
-14 -23 -31 -32 0
-14 -23 -32 -37 0
-14 -23 -32 -39 0
-14 -23 -32 -43 0
-14 -23 -32 -49 0
-14 -23 -32 -53 0
-14 -23 -36 -39 0
-14 -23 -38 -39 0
-14 -23 -39 -52 0
-14 -23 -40 -41 0
-14 -23 -41 -44 0
-14 -23 -41 -46 0
-14 -23 -41 -50 0
-14 -23 -41 -52 0
-14 -23 -46 -51 0
-14 -23 -48 -53 0
-14 -25 -26 -39 0
-14 -25 -27 -28 0
-14 -25 -27 -34 0
-14 -25 -30 -37 0
-14 -25 -30 -39 0
-14 -25 -30 -53 0
-14 -25 -34 -45 0
-14 -25 -36 -39 0
-14 -25 -37 -40 0
-14 -25 -41 -46 0
-14 -25 -41 -50 0
-14 -25 -45 -54 0
-14 -25 -46 -51 0
-14 -26 -29 -49 0
-14 -26 -39 -45 0
-14 -26 -39 -49 0
-14 -26 -43 -45 0
-14 -26 -45 -47 0
-14 -27 -28 -39 0
-14 -27 -28 -49 0
-14 -27 -28 -53 0
-14 -27 -34 -53 0
-14 -27 -40 -47 0
-14 -27 -41 -44 0
-14 -27 -44 -47 0
-14 -27 -47 -52 0
-14 -27 -47 -54 0
-14 -28 -35 -51 0
-14 -28 -39 -51 0
-14 -28 -43 -51 0
-14 -28 -51 -53 0
-14 -29 -32 -49 0
-14 -30 -33 -45 0
-14 -30 -37 -45 0
-14 -30 -39 -45 0
-14 -30 -45 -47 0
-14 -31 -32 -51 0
-14 -32 -37 -51 0
-14 -32 -49 -51 0
-14 -32 -51 -53 0
-14 -34 -45 -47 0
-14 -36 -45 -47 0
-14 -38 -39 -51 0
-14 -38 -49 -51 0
-14 -40 -41 -49 0
-14 -41 -46 -49 0
-14 -41 -49 -50 0
-14 -45 -47 -54 0
-14 -46 -49 -51 0
-15 -16 -17 -18 0
-15 -16 -17 -46 0
-15 -16 -18 -37 0
-15 -16 -18 -39 0
-15 -16 -18 -43 0
-15 -16 -18 -49 0
-15 -16 -21 -38 0
-15 -16 -21 -46 0
-15 -16 -23 -38 0
-15 -16 -24 -39 0
-15 -16 -24 -49 0
-15 -16 -25 -46 0
-15 -16 -26 -29 0
-15 -16 -26 -43 0
-15 -16 -27 -38 0
-15 -16 -39 -48 0
-15 -16 -39 -52 0
-15 -16 -39 -54 0
-15 -16 -48 -49 0
-15 -17 -18 -54 0
-15 -17 -24 -46 0
-15 -17 -24 -54 0
-15 -17 -26 -54 0
-15 -17 -30 -46 0
-15 -17 -40 -52 0
-15 -17 -46 -48 0
-15 -17 -46 -52 0
-15 -17 -50 -52 0
-15 -18 -20 -37 0
-15 -18 -24 -43 0
-15 -18 -28 -43 0
-15 -18 -30 -43 0
-15 -18 -37 -48 0
-15 -18 -37 -54 0
-15 -18 -41 -43 0
-15 -18 -43 -48 0
-15 -18 -43 -52 0
-15 -18 -43 -54 0
-15 -19 -28 -40 0
-15 -19 -28 -50 0
-15 -20 -25 -46 0
-15 -20 -25 -50 0
-15 -20 -26 -29 0
-15 -20 -29 -50 0
-15 -20 -33 -50 0
-15 -20 -35 -38 0
-15 -20 -35 -54 0
-15 -21 -30 -40 0
-15 -23 -24 -38 0
-15 -23 -26 -48 0
-15 -23 -28 -38 0
-15 -23 -28 -40 0
-15 -23 -30 -38 0
-15 -23 -30 -40 0
-15 -23 -30 -46 0
-15 -23 -30 -48 0
-15 -23 -38 -48 0
-15 -23 -38 -52 0
-15 -23 -38 -54 0
-15 -23 -40 -52 0
-15 -24 -25 -46 0
-15 -24 -26 -29 0
-15 -24 -27 -38 0
-15 -24 -27 -46 0
-15 -24 -31 -38 0
-15 -24 -31 -48 0
-15 -24 -35 -38 0
-15 -24 -38 -49 0
-15 -24 -46 -49 0
-15 -25 -28 -40 0
-15 -25 -46 -48 0
-15 -25 -46 -54 0
-15 -26 -28 -29 0
-15 -26 -28 -35 0
-15 -26 -29 -30 0
-15 -26 -29 -48 0
-15 -26 -29 -52 0
-15 -26 -29 -54 0
-15 -26 -31 -48 0
-15 -26 -35 -54 0
-15 -26 -39 -48 0
-15 -26 -39 -52 0
-15 -26 -48 -53 0
-15 -27 -30 -40 0
-15 -27 -32 -48 0
-15 -27 -38 -48 0
-15 -27 -38 -54 0
-15 -27 -44 -48 0
-15 -27 -46 -48 0
-15 -27 -46 -54 0
-15 -28 -29 -40 0
-15 -28 -29 -50 0
-15 -28 -35 -40 0
-15 -28 -35 -46 0
-15 -28 -35 -50 0
-15 -28 -40 -41 0
-15 -28 -40 -43 0
-15 -28 -40 -49 0
-15 -28 -40 -53 0
-15 -28 -41 -50 0
-15 -28 -43 -50 0
-15 -29 -40 -52 0
-15 -29 -50 -52 0
-15 -30 -33 -40 0
-15 -30 -40 -47 0
-15 -30 -40 -53 0
-15 -31 -34 -48 0
-15 -31 -44 -48 0
-15 -31 -46 -48 0
-15 -31 -46 -54 0
-15 -33 -40 -52 0
-15 -33 -50 -52 0
-15 -35 -36 -54 0
-15 -35 -40 -52 0
-15 -35 -46 -54 0
-15 -35 -50 -52 0
-15 -38 -46 -54 0
-15 -39 -40 -52 0
-15 -39 -50 -52 0
-15 -40 -47 -52 0
-15 -41 -43 -50 0
-15 -46 -48 -49 0
-15 -47 -50 -52 0
-16 -17 -22 -45 0
-16 -17 -24 -39 0
-16 -17 -26 -45 0
-16 -17 -28 -45 0
-16 -17 -37 -45 0
-16 -17 -39 -46 0
-16 -17 -39 -52 0
-16 -17 -45 -46 0
-16 -17 -45 -50 0
-16 -17 -45 -52 0
-16 -18 -19 -37 0
-16 -18 -19 -39 0
-16 -18 -19 -45 0
-16 -18 -19 -49 0
-16 -18 -27 -49 0
-16 -18 -29 -37 0
-16 -18 -29 -39 0
-16 -18 -29 -43 0
-16 -18 -49 -51 0
-16 -19 -24 -39 0
-16 -19 -28 -37 0
-16 -19 -28 -45 0
-16 -19 -38 -45 0
-16 -19 -41 -42 0
-16 -19 -42 -45 0
-16 -21 -23 -38 0
-16 -21 -24 -37 0
-16 -21 -24 -39 0
-16 -21 -24 -44 0
-16 -21 -24 -47 0
-16 -21 -24 -49 0
-16 -21 -25 -30 0
-16 -21 -26 -43 0
-16 -21 -27 -44 0
-16 -21 -29 -42 0
-16 -21 -29 -44 0
-16 -21 -29 -49 0
-16 -21 -30 -41 0
-16 -21 -30 -49 0
-16 -21 -32 -37 0
-16 -21 -34 -35 0
-16 -21 -34 -37 0
-16 -21 -34 -41 0
-16 -21 -34 -47 0
-16 -21 -34 -51 0
-16 -21 -34 -53 0
-16 -21 -37 -40 0
-16 -21 -37 -54 0
-16 -21 -39 -42 0
-16 -21 -39 -46 0
-16 -21 -39 -48 0
-16 -21 -39 -52 0
-16 -21 -39 -54 0
-16 -21 -44 -51 0
-16 -21 -48 -49 0
-16 -22 -28 -43 0
-16 -22 -41 -43 0
-16 -23 -30 -49 0
-16 -23 -32 -43 0
-16 -23 -32 -53 0
-16 -24 -25 -39 0
-16 -24 -25 -45 0
-16 -24 -25 -49 0
-16 -24 -26 -49 0
-16 -24 -27 -49 0
-16 -24 -29 -39 0
-16 -24 -39 -43 0
-16 -24 -39 -49 0
-16 -24 -39 -53 0
-16 -25 -29 -30 0
-16 -25 -29 -36 0
-16 -25 -30 -37 0
-16 -25 -30 -51 0
-16 -25 -30 -53 0
-16 -25 -36 -51 0
-16 -25 -39 -46 0
-16 -25 -42 -45 0
-16 -25 -45 -46 0
-16 -25 -45 -50 0
-16 -25 -45 -54 0
-16 -26 -29 -37 0
-16 -26 -29 -41 0
-16 -26 -29 -51 0
-16 -26 -31 -43 0
-16 -26 -37 -43 0
-16 -26 -41 -43 0
-16 -26 -43 -45 0
-16 -27 -28 -53 0
-16 -27 -34 -53 0
-16 -28 -29 -37 0
-16 -28 -37 -43 0
-16 -28 -37 -53 0
-16 -28 -43 -45 0
-16 -28 -43 -47 0
-16 -29 -32 -37 0
-16 -29 -36 -43 0
-16 -29 -39 -48 0
-16 -29 -39 -52 0
-16 -29 -41 -42 0
-16 -29 -43 -50 0
-16 -29 -48 -49 0
-16 -30 -33 -49 0
-16 -30 -37 -49 0
-16 -30 -47 -49 0
-16 -30 -49 -51 0
-16 -32 -43 -45 0
-16 -34 -35 -49 0
-16 -34 -41 -49 0
-16 -34 -49 -51 0
-16 -34 -49 -53 0
-16 -36 -43 -45 0
-16 -37 -40 -49 0
-16 -39 -42 -53 0
-16 -39 -48 -53 0
-16 -39 -52 -53 0
-16 -40 -49 -53 0
-16 -43 -45 -50 0
-16 -48 -49 -53 0
-17 -18 -19 -38 0
-17 -18 -19 -42 0
-17 -18 -19 -44 0
-17 -18 -19 -46 0
-17 -18 -19 -50 0
-17 -18 -19 -54 0
-17 -18 -23 -38 0
-17 -18 -27 -38 0
-17 -18 -27 -44 0
-17 -18 -27 -54 0
-17 -18 -29 -38 0
-17 -18 -38 -51 0
-17 -18 -42 -53 0
-17 -18 -44 -51 0
-17 -18 -51 -54 0
-17 -19 -22 -42 0
-17 -19 -26 -38 0
-17 -19 -26 -42 0
-17 -19 -28 -38 0
-17 -19 -28 -42 0
-17 -19 -28 -44 0
-17 -19 -28 -46 0
-17 -19 -30 -46 0
-17 -19 -38 -50 0
-17 -19 -42 -46 0
-17 -19 -42 -50 0
-17 -19 -42 -52 0
-17 -21 -26 -38 0
-17 -21 -26 -54 0
-17 -22 -25 -30 0
-17 -22 -27 -44 0
-17 -22 -29 -42 0
-17 -22 -29 -44 0
-17 -22 -31 -42 0
-17 -22 -33 -42 0
-17 -22 -33 -46 0
-17 -22 -42 -51 0
-17 -22 -44 -51 0
-17 -23 -28 -38 0
-17 -24 -25 -30 0
-17 -24 -25 -54 0
-17 -24 -27 -44 0
-17 -24 -27 -54 0
-17 -24 -31 -42 0
-17 -24 -31 -52 0
-17 -24 -35 -54 0
-17 -25 -26 -30 0
-17 -25 -26 -38 0
-17 -25 -26 -54 0
-17 -25 -28 -30 0
-17 -25 -30 -46 0
-17 -25 -30 -50 0
-17 -25 -30 -52 0
-17 -25 -38 -50 0
-17 -25 -50 -54 0
-17 -26 -27 -38 0
-17 -26 -30 -31 0
-17 -26 -31 -38 0
-17 -26 -31 -44 0
-17 -26 -31 -54 0
-17 -26 -37 -38 0
-17 -26 -37 -54 0
-17 -26 -38 -45 0
-17 -26 -38 -49 0
-17 -26 -38 -51 0
-17 -26 -45 -54 0
-17 -27 -44 -46 0
-17 -27 -44 -52 0
-17 -28 -29 -38 0
-17 -28 -35 -38 0
-17 -28 -38 -43 0
-17 -28 -38 -49 0
-17 -29 -36 -46 0
-17 -29 -42 -46 0
-17 -29 -42 -52 0
-17 -29 -44 -46 0
-17 -29 -44 -52 0
-17 -29 -46 -48 0
-17 -30 -31 -52 0
-17 -30 -33 -46 0
-17 -30 -41 -46 0
-17 -30 -41 -50 0
-17 -30 -46 -49 0
-17 -31 -34 -52 0
-17 -31 -38 -50 0
-17 -31 -44 -52 0
-17 -31 -50 -54 0
-17 -32 -33 -46 0
-17 -33 -44 -46 0
-17 -33 -44 -52 0
-17 -33 -46 -48 0
-17 -35 -38 -50 0
-17 -35 -50 -54 0
-17 -37 -45 -54 0
-17 -38 -41 -50 0
-17 -38 -43 -50 0
-17 -41 -50 -54 0
-17 -42 -44 -52 0
-17 -43 -50 -54 0
-17 -44 -46 -51 0
-18 -19 -20 -37 0
-18 -19 -20 -41 0
-18 -19 -20 -45 0
-18 -19 -20 -46 0
-18 -19 -20 -53 0
-18 -19 -21 -40 0
-18 -19 -25 -46 0
-18 -19 -26 -29 0
-18 -19 -26 -39 0
-18 -19 -26 -53 0
-18 -19 -27 -38 0
-18 -19 -27 -46 0
-18 -19 -27 -53 0
-18 -19 -28 -47 0
-18 -19 -33 -36 0
-18 -19 -34 -41 0
-18 -19 -36 -39 0
-18 -19 -36 -41 0
-18 -19 -36 -45 0
-18 -19 -36 -49 0
-18 -19 -36 -51 0
-18 -19 -37 -38 0
-18 -19 -37 -44 0
-18 -19 -37 -48 0
-18 -19 -37 -50 0
-18 -19 -37 -54 0
-18 -19 -41 -42 0
-18 -19 -41 -50 0
-18 -19 -44 -53 0
-18 -19 -46 -49 0
-18 -20 -23 -37 0
-18 -20 -25 -53 0
-18 -20 -27 -37 0
-18 -20 -28 -53 0
-18 -20 -29 -37 0
-18 -20 -29 -43 0
-18 -20 -29 -53 0
-18 -20 -37 -47 0
-18 -20 -37 -51 0
-18 -20 -37 -53 0
-18 -21 -26 -53 0
-18 -21 -34 -47 0
-18 -21 -34 -51 0
-18 -23 -30 -41 0
-18 -23 -30 -43 0
-18 -23 -38 -39 0
-18 -23 -38 -43 0
-18 -23 -40 -43 0
-18 -24 -30 -47 0
-18 -24 -39 -47 0
-18 -25 -30 -51 0
-18 -25 -36 -51 0
-18 -26 -27 -29 0
-18 -26 -29 -41 0
-18 -26 -29 -49 0
-18 -26 -29 -51 0
-18 -26 -31 -53 0
-18 -26 -41 -53 0
-18 -26 -45 -53 0
-18 -26 -49 -53 0
-18 -27 -28 -39 0
-18 -27 -28 -41 0
-18 -27 -28 -49 0
-18 -27 -29 -32 0
-18 -27 -30 -41 0
-18 -27 -32 -47 0
-18 -27 -34 -41 0
-18 -27 -37 -44 0
-18 -27 -37 -54 0
-18 -27 -38 -39 0
-18 -27 -44 -53 0
-18 -27 -47 -52 0
-18 -28 -35 -47 0
-18 -28 -39 -47 0
-18 -28 -41 -47 0
-18 -28 -43 -47 0
-18 -29 -32 -49 0
-18 -29 -37 -48 0
-18 -29 -38 -43 0
-18 -29 -43 -48 0
-18 -29 -43 -50 0
-18 -29 -43 -52 0
-18 -30 -41 -47 0
-18 -30 -41 -51 0
-18 -30 -43 -47 0
-18 -30 -45 -47 0
-18 -32 -43 -47 0
-18 -33 -36 -53 0
-18 -34 -43 -47 0
-18 -36 -39 -53 0
-18 -36 -49 -53 0
-18 -36 -51 -53 0
-18 -37 -38 -51 0
-18 -37 -44 -51 0
-18 -37 -51 -54 0
-18 -41 -42 -53 0
-18 -42 -51 -53 0
-18 -43 -47 -52 0
-18 -44 -51 -53 0
-19 -20 -23 -42 0
-19 -20 -24 -41 0
-19 -20 -28 -41 0
-19 -20 -28 -45 0
-19 -20 -34 -41 0
-19 -20 -35 -38 0
-19 -20 -38 -41 0
-19 -20 -41 -42 0
-19 -20 -42 -45 0
-19 -20 -42 -47 0
-19 -20 -45 -53 0
-19 -21 -24 -40 0
-19 -21 -28 -40 0
-19 -21 -28 -44 0
-19 -21 -28 -46 0
-19 -21 -30 -40 0
-19 -21 -38 -40 0
-19 -22 -41 -42 0
-19 -23 -26 -42 0
-19 -23 -30 -42 0
-19 -23 -30 -46 0
-19 -23 -30 -48 0
-19 -23 -40 -42 0
-19 -24 -25 -46 0
-19 -24 -27 -38 0
-19 -24 -27 -46 0
-19 -24 -31 -38 0
-19 -24 -31 -43 0
-19 -24 -31 -48 0
-19 -24 -31 -52 0
-19 -24 -36 -39 0
-19 -25 -28 -46 0
-19 -25 -34 -44 0
-19 -25 -34 -46 0
-19 -26 -28 -29 0
-19 -26 -28 -35 0
-19 -26 -29 -30 0
-19 -26 -29 -38 0
-19 -26 -34 -35 0
-19 -26 -35 -38 0
-19 -26 -42 -45 0
-19 -27 -30 -38 0
-19 -27 -32 -38 0
-19 -27 -32 -48 0
-19 -27 -34 -53 0
-19 -28 -29 -36 0
-19 -28 -30 -33 0
-19 -28 -31 -48 0
-19 -28 -33 -36 0
-19 -28 -33 -40 0
-19 -28 -33 -47 0
-19 -28 -33 -50 0
-19 -28 -33 -52 0
-19 -28 -35 -46 0
-19 -28 -36 -38 0
-19 -28 -36 -45 0
-19 -28 -36 -49 0
-19 -28 -36 -51 0
-19 -28 -37 -38 0
-19 -28 -37 -44 0
-19 -28 -37 -48 0
-19 -28 -37 -54 0
-19 -28 -39 -48 0
-19 -28 -42 -47 0
-19 -28 -42 -50 0
-19 -29 -36 -38 0
-19 -30 -33 -36 0
-19 -30 -42 -47 0
-19 -31 -34 -48 0
-19 -32 -33 -47 0
-19 -32 -33 -50 0
-19 -32 -36 -49 0
-19 -33 -36 -38 0
-19 -34 -35 -46 0
-19 -34 -36 -51 0
-19 -34 -41 -50 0
-19 -34 -42 -47 0
-19 -35 -36 -38 0
-19 -36 -38 -45 0
-19 -36 -38 -49 0
-19 -36 -38 -51 0
-19 -36 -42 -45 0
-19 -36 -43 -49 0
-19 -36 -45 -53 0
-19 -40 -41 -42 0
-19 -41 -42 -44 0
-19 -41 -42 -50 0
-19 -42 -45 -54 0
-19 -42 -47 -52 0
-20 -21 -37 -40 0
-20 -22 -23 -39 0
-20 -22 -37 -39 0
-20 -23 -25 -40 0
-20 -23 -25 -48 0
-20 -23 -29 -48 0
-20 -23 -32 -37 0
-20 -23 -35 -40 0
-20 -23 -35 -44 0
-20 -23 -35 -47 0
-20 -23 -35 -54 0
-20 -24 -39 -41 0
-20 -25 -27 -28 0
-20 -25 -27 -34 0
-20 -25 -29 -30 0
-20 -25 -29 -36 0
-20 -25 -30 -34 0
-20 -25 -30 -37 0
-20 -25 -30 -53 0
-20 -25 -34 -49 0
-20 -25 -36 -46 0
-20 -25 -40 -47 0
-20 -25 -42 -47 0
-20 -26 -29 -37 0
-20 -26 -29 -47 0
-20 -26 -29 -49 0
-20 -27 -35 -44 0
-20 -27 -35 -54 0
-20 -28 -33 -36 0
-20 -29 -32 -37 0
-20 -29 -32 -44 0
-20 -29 -35 -44 0
-20 -29 -42 -47 0
-20 -30 -33 -41 0
-20 -30 -33 -45 0
-20 -31 -32 -35 0
-20 -31 -35 -54 0
-20 -32 -35 -37 0
-20 -32 -35 -43 0
-20 -32 -35 -49 0
-20 -32 -35 -53 0
-20 -33 -34 -41 0
-20 -33 -36 -41 0
-20 -33 -36 -45 0
-20 -33 -39 -52 0
-20 -33 -40 -53 0
-20 -33 -41 -50 0
-20 -33 -41 -52 0
-20 -33 -45 -52 0
-20 -35 -37 -40 0
-20 -35 -37 -54 0
-20 -35 -38 -45 0
-20 -35 -38 -49 0
-20 -35 -38 -51 0
-20 -35 -40 -47 0
-20 -35 -40 -49 0
-20 -35 -40 -53 0
-20 -35 -41 -54 0
-20 -35 -45 -54 0
-20 -35 -47 -54 0
-20 -37 -38 -45 0
-20 -37 -45 -54 0
-20 -39 -41 -42 0
-20 -39 -41 -52 0
-21 -22 -23 -38 0
-21 -22 -24 -37 0
-21 -22 -27 -44 0
-21 -22 -29 -42 0
-21 -22 -29 -44 0
-21 -22 -33 -42 0
-21 -22 -33 -45 0
-21 -22 -33 -46 0
-21 -22 -33 -50 0
-21 -22 -34 -41 0
-21 -23 -26 -38 0
-21 -23 -26 -44 0
-21 -23 -26 -48 0
-21 -23 -28 -38 0
-21 -23 -38 -42 0
-21 -24 -26 -37 0
-21 -24 -26 -47 0
-21 -24 -31 -42 0
-21 -24 -32 -37 0
-21 -24 -37 -40 0
-21 -24 -37 -42 0
-21 -24 -40 -43 0
-21 -24 -40 -47 0
-21 -24 -47 -49 0
-21 -25 -26 -30 0
-21 -25 -26 -34 0
-21 -25 -28 -30 0
-21 -25 -30 -42 0
-21 -25 -34 -42 0
-21 -26 -27 -44 0
-21 -26 -28 -35 0
-21 -26 -30 -31 0
-21 -26 -31 -44 0
-21 -26 -33 -46 0
-21 -26 -34 -35 0
-21 -26 -34 -42 0
-21 -26 -34 -47 0
-21 -26 -34 -51 0
-21 -26 -34 -53 0
-21 -26 -35 -38 0
-21 -26 -35 -43 0
-21 -26 -35 -50 0
-21 -26 -35 -54 0
-21 -26 -39 -42 0
-21 -26 -39 -46 0
-21 -26 -39 -48 0
-21 -26 -39 -52 0
-21 -26 -40 -43 0
-21 -26 -40 -54 0
-21 -26 -41 -46 0
-21 -27 -32 -44 0
-21 -27 -32 -48 0
-21 -28 -29 -42 0
-21 -28 -34 -35 0
-21 -28 -40 -43 0
-21 -29 -32 -49 0
-21 -29 -36 -42 0
-21 -29 -36 -46 0
-21 -30 -31 -32 0
-21 -30 -31 -42 0
-21 -30 -40 -47 0
-21 -31 -32 -44 0
-21 -31 -34 -42 0
-21 -32 -33 -46 0
-21 -32 -34 -53 0
-21 -32 -37 -54 0
-21 -32 -40 -43 0
-21 -34 -35 -42 0
-21 -34 -36 -51 0
-21 -34 -40 -47 0
-21 -34 -42 -47 0
-21 -34 -42 -51 0
-21 -34 -42 -53 0
-21 -34 -45 -51 0
-21 -34 -47 -49 0
-21 -35 -36 -43 0
-21 -35 -36 -54 0
-21 -37 -38 -40 0
-21 -37 -40 -48 0
-21 -37 -40 -54 0
-21 -40 -43 -50 0
-21 -40 -47 -52 0
-22 -23 -30 -39 0
-22 -23 -30 -43 0
-22 -23 -33 -40 0
-22 -23 -36 -39 0
-22 -23 -38 -39 0
-22 -23 -38 -43 0
-22 -23 -38 -45 0
-22 -23 -39 -40 0
-22 -23 -43 -51 0
-22 -24 -37 -41 0
-22 -25 -29 -30 0
-22 -25 -29 -36 0
-22 -25 -33 -46 0
-22 -25 -33 -50 0
-22 -26 -27 -29 0
-22 -26 -29 -36 0
-22 -26 -29 -41 0
-22 -26 -29 -51 0
-22 -26 -31 -39 0
-22 -26 -31 -43 0
-22 -27 -28 -41 0
-22 -27 -28 -45 0
-22 -27 -28 -53 0
-22 -27 -29 -32 0
-22 -27 -33 -46 0
-22 -27 -34 -41 0
-22 -27 -34 -46 0
-22 -27 -38 -45 0
-22 -29 -32 -48 0
-22 -29 -36 -53 0
-22 -29 -38 -45 0
-22 -29 -42 -45 0
-22 -30 -31 -32 0
-22 -31 -32 -39 0
-22 -31 -32 -43 0
-22 -31 -36 -39 0
-22 -31 -37 -54 0
-22 -31 -39 -52 0
-22 -31 -39 -54 0
-22 -31 -42 -51 0
-22 -31 -43 -54 0
-22 -33 -34 -35 0
-22 -33 -34 -41 0
-22 -33 -34 -47 0
-22 -33 -34 -51 0
-22 -33 -34 -53 0
-22 -33 -35 -50 0
-22 -33 -39 -50 0
-22 -33 -40 -43 0
-22 -33 -40 -49 0
-22 -33 -40 -53 0
-22 -33 -41 -42 0
-22 -33 -41 -50 0
-22 -33 -42 -45 0
-22 -33 -42 -51 0
-22 -33 -42 -53 0
-22 -33 -43 -50 0
-22 -33 -45 -50 0
-22 -37 -38 -39 0
-22 -37 -39 -54 0
-22 -40 -41 -43 0
-22 -41 -43 -50 0
-23 -24 -38 -39 0
-23 -25 -26 -40 0
-23 -25 -34 -40 0
-23 -25 -34 -44 0
-23 -25 -36 -51 0
-23 -26 -27 -28 0
-23 -26 -30 -31 0
-23 -26 -31 -32 0
-23 -26 -38 -45 0
-23 -27 -28 -30 0
-23 -27 -28 -40 0
-23 -27 -30 -32 0
-23 -27 -32 -40 0
-23 -28 -30 -33 0
-23 -28 -33 -36 0
-23 -28 -33 -40 0
-23 -28 -38 -43 0
-23 -29 -30 -48 0
-23 -29 -36 -46 0
-23 -29 -36 -48 0
-23 -30 -31 -32 0
-23 -30 -31 -42 0
-23 -30 -31 -45 0
-23 -30 -31 -52 0
-23 -30 -31 -54 0
-23 -30 -32 -40 0
-23 -30 -32 -43 0
-23 -30 -32 -49 0
-23 -30 -32 -53 0
-23 -30 -33 -48 0
-23 -30 -35 -44 0
-23 -30 -37 -44 0
-23 -30 -38 -45 0
-23 -30 -38 -52 0
-23 -30 -40 -41 0
-23 -30 -41 -44 0
-23 -30 -41 -46 0
-23 -30 -41 -50 0
-23 -31 -32 -40 0
-23 -31 -34 -45 0
-23 -31 -34 -52 0
-23 -32 -33 -40 0
-23 -32 -34 -53 0
-23 -32 -36 -49 0
-23 -32 -38 -43 0
-23 -32 -40 -43 0
-23 -32 -40 -49 0
-23 -32 -40 -53 0
-23 -32 -43 -51 0
-23 -32 -47 -53 0
-23 -33 -36 -48 0
-23 -35 -36 -44 0
-23 -36 -38 -45 0
-23 -36 -39 -52 0
-23 -38 -39 -42 0
-23 -38 -39 -46 0
-23 -38 -39 -52 0
-23 -38 -43 -50 0
-23 -38 -45 -54 0
-24 -25 -27 -28 0
-24 -25 -27 -34 0
-24 -25 -30 -39 0
-24 -25 -30 -43 0
-24 -25 -30 -51 0
-24 -25 -31 -48 0
-24 -25 -36 -39 0
-24 -25 -36 -48 0
-24 -25 -40 -43 0
-24 -26 -27 -29 0
-24 -26 -34 -35 0
-24 -27 -28 -32 0
-24 -27 -28 -39 0
-24 -27 -28 -49 0
-24 -27 -29 -32 0
-24 -27 -32 -51 0
-24 -27 -34 -44 0
-24 -27 -38 -43 0
-24 -27 -40 -43 0
-24 -28 -35 -37 0
-24 -28 -35 -47 0
-24 -29 -31 -48 0
-24 -29 -31 -52 0
-24 -31 -33 -36 0
-24 -31 -33 -52 0
-24 -31 -36 -39 0
-24 -31 -36 -45 0
-24 -31 -36 -49 0
-24 -31 -36 -51 0
-24 -31 -37 -52 0
-24 -31 -38 -39 0
-24 -31 -38 -43 0
-24 -31 -38 -49 0
-24 -31 -38 -51 0
-24 -31 -39 -52 0
-24 -31 -42 -47 0
-24 -31 -42 -51 0
-24 -31 -42 -53 0
-24 -31 -43 -52 0
-24 -31 -47 -52 0
-24 -32 -35 -37 0
-24 -34 -35 -37 0
-24 -34 -35 -47 0
-24 -35 -37 -50 0
-24 -35 -37 -54 0
-24 -35 -38 -49 0
-24 -35 -41 -50 0
-24 -35 -47 -50 0
-24 -37 -40 -41 0
-24 -37 -41 -50 0
-24 -39 -42 -47 0
-24 -39 -47 -52 0
-25 -26 -27 -28 0
-25 -26 -30 -43 0
-25 -26 -30 -53 0
-25 -26 -35 -50 0
-25 -26 -39 -46 0
-25 -26 -40 -43 0
-25 -27 -28 -44 0
-25 -27 -28 -46 0
-25 -27 -28 -50 0
-25 -27 -28 -54 0
-25 -27 -32 -44 0
-25 -27 -34 -44 0
-25 -27 -34 -46 0
-25 -27 -34 -50 0
-25 -27 -34 -54 0
-25 -27 -44 -46 0
-25 -27 -44 -48 0
-25 -27 -46 -48 0
-25 -28 -29 -30 0
-25 -28 -30 -43 0
-25 -28 -30 -51 0
-25 -28 -40 -43 0
-25 -29 -30 -46 0
-25 -29 -30 -48 0
-25 -29 -30 -50 0
-25 -29 -30 -52 0
-25 -29 -34 -46 0
-25 -29 -36 -46 0
-25 -29 -36 -48 0
-25 -29 -36 -50 0
-25 -29 -36 -52 0
-25 -29 -44 -46 0
-25 -29 -44 -48 0
-25 -29 -46 -48 0
-25 -30 -32 -43 0
-25 -30 -32 -53 0
-25 -30 -34 -51 0
-25 -30 -37 -48 0
-25 -30 -37 -49 0
-25 -30 -37 -50 0
-25 -30 -37 -54 0
-25 -30 -38 -51 0
-25 -30 -39 -46 0
-25 -30 -39 -48 0
-25 -30 -39 -52 0
-25 -30 -42 -51 0
-25 -30 -42 -53 0
-25 -30 -43 -50 0
-25 -30 -46 -51 0
-25 -30 -46 -53 0
-25 -30 -48 -51 0
-25 -32 -33 -46 0
-25 -34 -36 -51 0
-25 -34 -40 -46 0
-25 -34 -41 -46 0
-25 -34 -44 -51 0
-25 -34 -45 -54 0
-25 -36 -39 -46 0
-25 -36 -39 -48 0
-25 -36 -39 -52 0
-25 -36 -39 -53 0
-25 -36 -42 -51 0
-25 -36 -46 -51 0
-25 -36 -48 -51 0
-25 -37 -40 -48 0
-25 -37 -40 -49 0
-25 -37 -40 -54 0
-25 -40 -43 -50 0
-25 -40 -47 -52 0
-26 -27 -28 -45 0
-26 -27 -28 -53 0
-26 -27 -29 -30 0
-26 -27 -29 -44 0
-26 -27 -29 -48 0
-26 -27 -29 -52 0
-26 -27 -29 -54 0
-26 -27 -38 -45 0
-26 -28 -29 -47 0
-26 -28 -29 -51 0
-26 -28 -31 -35 0
-26 -28 -31 -43 0
-26 -28 -31 -53 0
-26 -28 -35 -45 0
-26 -28 -35 -47 0
-26 -28 -35 -51 0
-26 -28 -43 -45 0
-26 -28 -43 -47 0
-26 -28 -45 -47 0
-26 -29 -30 -47 0
-26 -29 -30 -49 0
-26 -29 -34 -47 0
-26 -29 -34 -51 0
-26 -29 -36 -49 0
-26 -29 -37 -44 0
-26 -29 -37 -48 0
-26 -29 -37 -54 0
-26 -29 -38 -49 0
-26 -29 -38 -51 0
-26 -29 -40 -49 0
-26 -29 -41 -44 0
-26 -29 -41 -50 0
-26 -29 -41 -52 0
-26 -29 -41 -53 0
-26 -29 -44 -49 0
-26 -29 -47 -52 0
-26 -29 -48 -49 0
-26 -29 -48 -51 0
-26 -30 -31 -33 0
-26 -30 -31 -43 0
-26 -30 -31 -47 0
-26 -30 -31 -53 0
-26 -30 -33 -45 0
-26 -30 -33 -49 0
-26 -30 -43 -45 0
-26 -30 -43 -47 0
-26 -30 -45 -47 0
-26 -31 -32 -35 0
-26 -31 -35 -44 0
-26 -31 -35 -50 0
-26 -31 -35 -54 0
-26 -31 -39 -52 0
-26 -31 -48 -53 0
-26 -34 -35 -45 0
-26 -34 -35 -47 0
-26 -34 -35 -49 0
-26 -34 -35 -51 0
-26 -35 -37 -54 0
-26 -35 -38 -45 0
-26 -35 -38 -49 0
-26 -35 -41 -50 0
-26 -35 -45 -50 0
-26 -35 -45 -54 0
-26 -39 -42 -45 0
-26 -39 -45 -52 0
-26 -39 -47 -52 0
-26 -40 -41 -43 0
-27 -28 -30 -45 0
-27 -28 -30 -49 0
-27 -28 -32 -53 0
-27 -28 -36 -45 0
-27 -28 -36 -49 0
-27 -28 -39 -46 0
-27 -28 -39 -51 0
-27 -28 -39 -52 0
-27 -28 -39 -54 0
-27 -28 -40 -49 0
-27 -28 -40 -53 0
-27 -28 -41 -44 0
-27 -28 -41 -46 0
-27 -28 -41 -50 0
-27 -28 -42 -53 0
-27 -28 -44 -49 0
-27 -28 -44 -53 0
-27 -28 -45 -54 0
-27 -28 -46 -53 0
-27 -29 -32 -44 0
-27 -29 -32 -48 0
-27 -29 -32 -52 0
-27 -29 -32 -54 0
-27 -29 -36 -48 0
-27 -29 -44 -46 0
-27 -29 -44 -48 0
-27 -29 -46 -48 0
-27 -30 -31 -54 0
-27 -30 -38 -45 0
-27 -30 -41 -44 0
-27 -32 -34 -53 0
-27 -32 -37 -44 0
-27 -32 -38 -44 0
-27 -32 -47 -52 0
-27 -32 -48 -53 0
-27 -34 -40 -53 0
-27 -34 -41 -44 0
-27 -34 -41 -46 0
-27 -34 -41 -49 0
-27 -34 -41 -50 0
-27 -34 -44 -53 0
-27 -34 -46 -53 0
-27 -35 -36 -44 0
-27 -38 -39 -46 0
-27 -38 -39 -51 0
-27 -38 -39 -52 0
-27 -38 -43 -50 0
-27 -38 -45 -54 0
-28 -29 -33 -52 0
-28 -29 -37 -48 0
-28 -29 -42 -47 0
-28 -30 -33 -35 0
-28 -30 -33 -43 0
-28 -30 -33 -45 0
-28 -30 -33 -49 0
-28 -30 -35 -47 0
-28 -30 -35 -51 0
-28 -30 -43 -45 0
-28 -30 -43 -47 0
-28 -30 -45 -47 0
-28 -33 -34 -35 0
-28 -33 -35 -46 0
-28 -33 -35 -50 0
-28 -33 -35 -52 0
-28 -33 -36 -43 0
-28 -33 -36 -45 0
-28 -33 -36 -49 0
-28 -33 -36 -53 0
-28 -33 -39 -52 0
-28 -33 -40 -43 0
-28 -33 -40 -53 0
-28 -33 -41 -50 0
-28 -33 -43 -50 0
-28 -33 -43 -52 0
-28 -35 -37 -54 0
-28 -35 -44 -51 0
-28 -37 -38 -43 0
-28 -37 -43 -54 0
-28 -37 -45 -54 0
-28 -39 -42 -47 0
-29 -30 -42 -47 0
-29 -31 -34 -48 0
-29 -32 -36 -49 0
-29 -32 -37 -44 0
-29 -32 -37 -48 0
-29 -32 -37 -51 0
-29 -32 -37 -54 0
-29 -32 -38 -49 0
-29 -32 -44 -49 0
-29 -32 -48 -49 0
-29 -36 -39 -48 0
-29 -36 -42 -48 0
-29 -36 -43 -50 0
-29 -36 -46 -49 0
-29 -41 -42 -44 0
-29 -41 -42 -50 0
-29 -41 -42 -53 0
-29 -42 -45 -54 0
-29 -42 -47 -52 0
-30 -31 -32 -43 0
-30 -31 -32 -47 0
-30 -31 -32 -51 0
-30 -31 -32 -53 0
-30 -31 -33 -36 0
-30 -31 -33 -48 0
-30 -31 -33 -52 0
-30 -31 -33 -54 0
-30 -31 -37 -54 0
-30 -31 -39 -52 0
-30 -31 -42 -47 0
-30 -31 -42 -51 0
-30 -31 -47 -52 0
-30 -31 -47 -54 0
-30 -33 -41 -50 0
-30 -33 -46 -49 0
-30 -37 -38 -45 0
-30 -40 -41 -47 0
-30 -41 -43 -50 0
-30 -41 -47 -50 0
-31 -32 -33 -50 0
-31 -32 -35 -36 0
-31 -33 -34 -36 0
-31 -33 -34 -48 0
-31 -33 -34 -52 0
-31 -33 -50 -52 0
-31 -33 -50 -54 0
-31 -33 -52 -54 0
-31 -34 -35 -52 0
-31 -34 -36 -45 0
-31 -34 -36 -49 0
-31 -34 -36 -51 0
-31 -34 -39 -52 0
-31 -34 -42 -44 0
-31 -34 -42 -45 0
-31 -34 -42 -51 0
-31 -34 -47 -52 0
-31 -35 -36 -44 0
-31 -35 -36 -54 0
-31 -35 -50 -52 0
-31 -35 -50 -54 0
-31 -35 -52 -54 0
-31 -36 -39 -52 0
-32 -33 -34 -35 0
-32 -33 -34 -47 0
-32 -33 -34 -51 0
-32 -33 -34 -53 0
-32 -33 -35 -46 0
-32 -33 -35 -50 0
-32 -33 -40 -47 0
-32 -33 -40 -48 0
-32 -33 -40 -53 0
-32 -33 -41 -50 0
-32 -33 -43 -50 0
-32 -34 -49 -51 0
-32 -34 -49 -53 0
-32 -34 -51 -53 0
-32 -35 -36 -43 0
-32 -35 -36 -49 0
-32 -35 -36 -53 0
-32 -35 -37 -54 0
-32 -36 -49 -51 0
-32 -36 -49 -53 0
-32 -36 -51 -53 0
-33 -34 -41 -50 0
-33 -35 -36 -54 0
-33 -35 -50 -52 0
-33 -35 -50 -54 0
-33 -35 -52 -54 0
-34 -36 -49 -51 0
-34 -36 -49 -53 0
-34 -36 -51 -53 0
-35 -36 -37 -54 0
-35 -36 -38 -43 0
-35 -36 -38 -46 0
-35 -36 -38 -49 0
-35 -36 -45 -54 0
-1 -14 -15 -20 -26 0
-2 -8 -19 -33 -50 0
-3 -17 -18 -24 -30 0
-4 -10 -23 -31 -52 0
-5 -13 -16 -22 -28 0
-6 -12 -21 -35 -54 0
-32 -37 -38 -44 -51 0
-34 -40 -41 -46 -49 0
-36 -39 -42 -48 -53 0
-1 -4 -14 -43 -49 -50 0
-1 -7 -8 -28 -39 -49 0
-1 -12 -17 -23 -29 -46 0
-1 -13 -20 -22 -28 -51 0
-2 -3 -18 -45 -51 -54 0
-2 -4 -10 -15 -19 -31 0
-2 -6 -8 -17 -21 -33 0
-3 -9 -12 -26 -41 -51 0
-3 -10 -13 -19 -25 -44 0
-3 -15 -20 -24 -26 -53 0
-4 -6 -12 -13 -23 -35 0
-5 -6 -16 -47 -52 -53 0
-5 -8 -15 -21 -27 -48 0
-5 -10 -11 -30 -37 -53 0
-5 -17 -22 -24 -30 -49 0
-7 -13 -19 -32 -40 -50 0
-9 -15 -21 -36 -38 -54 0
-11 -17 -23 -34 -42 -52 0
-14 -22 -25 -31 -32 -37 0
-16 -24 -29 -34 -35 -41 0
-18 -20 -27 -33 -36 -39 0
-19 -28 -35 -41 -47 -48 0
-21 -26 -31 -37 -43 -46 0
-23 -30 -33 -39 -44 -45 0
-31 -40 -41 -42 -48 -53 0
-33 -37 -38 -40 -46 -49 0
-35 -38 -39 -42 -44 -51 0
